--
&inputph
  recover  = .false.
  prefix   = 'pb',
  fildyn   = 'pb.dyn',
  fildvscf = 'dvscf'
  ldisp    = .true.,
  nq1=6,
  nq2=6,
  nq3=6,
  tr2_ph   =  1.0d-14,
 /
