&dos
 prefix = "Si_kcwann"
 outdir = "./out"
 degauss = 0.05
/
