phonons of Ni at X
 &inputph
  tr2_ph=1.0d-14,
  prefix='ni',
  amass(1)=58.6934,
  outdir='/home/dalcorso/tmp/'
 /
0.0 0.0 1.0
