&dos
 prefix = "h2o"
 outdir = "./out"
 degauss = 0.02
/
