 &control
    calculation  ='nscf',
    prefix       ='pb',
    pseudo_dir   = '../../pp/',
    outdir       ='./',
    tprnfor      = .true.,
    tstress      = .true.,
 /
 &system    
    ibrav = 2,
    celldm(1) = 9.2225583816,
    nat=  1 ,
    ntyp = 1 ,
    ecutwfc = 90,
    occupations = 'smearing',
    degauss = 0.01,
    nbnd      = 10,
 /
 &electrons
    mixing_beta = 0.7
    conv_thr    =  1.0d-12
 /
ATOMIC_SPECIES
 Pb 207.2   pb_s.UPF
ATOMIC_POSITIONS crystal
Pb  0.000000000   0.000000000   0.000000000
K_POINTS crystal
216
  0.00000000  0.00000000  0.00000000  4.629630e-03 
  0.00000000  0.00000000  0.16666667  4.629630e-03 
  0.00000000  0.00000000  0.33333333  4.629630e-03 
  0.00000000  0.00000000  0.50000000  4.629630e-03 
  0.00000000  0.00000000  0.66666667  4.629630e-03 
  0.00000000  0.00000000  0.83333333  4.629630e-03 
  0.00000000  0.16666667  0.00000000  4.629630e-03 
  0.00000000  0.16666667  0.16666667  4.629630e-03 
  0.00000000  0.16666667  0.33333333  4.629630e-03 
  0.00000000  0.16666667  0.50000000  4.629630e-03 
  0.00000000  0.16666667  0.66666667  4.629630e-03 
  0.00000000  0.16666667  0.83333333  4.629630e-03 
  0.00000000  0.33333333  0.00000000  4.629630e-03 
  0.00000000  0.33333333  0.16666667  4.629630e-03 
  0.00000000  0.33333333  0.33333333  4.629630e-03 
  0.00000000  0.33333333  0.50000000  4.629630e-03 
  0.00000000  0.33333333  0.66666667  4.629630e-03 
  0.00000000  0.33333333  0.83333333  4.629630e-03 
  0.00000000  0.50000000  0.00000000  4.629630e-03 
  0.00000000  0.50000000  0.16666667  4.629630e-03 
  0.00000000  0.50000000  0.33333333  4.629630e-03 
  0.00000000  0.50000000  0.50000000  4.629630e-03 
  0.00000000  0.50000000  0.66666667  4.629630e-03 
  0.00000000  0.50000000  0.83333333  4.629630e-03 
  0.00000000  0.66666667  0.00000000  4.629630e-03 
  0.00000000  0.66666667  0.16666667  4.629630e-03 
  0.00000000  0.66666667  0.33333333  4.629630e-03 
  0.00000000  0.66666667  0.50000000  4.629630e-03 
  0.00000000  0.66666667  0.66666667  4.629630e-03 
  0.00000000  0.66666667  0.83333333  4.629630e-03 
  0.00000000  0.83333333  0.00000000  4.629630e-03 
  0.00000000  0.83333333  0.16666667  4.629630e-03 
  0.00000000  0.83333333  0.33333333  4.629630e-03 
  0.00000000  0.83333333  0.50000000  4.629630e-03 
  0.00000000  0.83333333  0.66666667  4.629630e-03 
  0.00000000  0.83333333  0.83333333  4.629630e-03 
  0.16666667  0.00000000  0.00000000  4.629630e-03 
  0.16666667  0.00000000  0.16666667  4.629630e-03 
  0.16666667  0.00000000  0.33333333  4.629630e-03 
  0.16666667  0.00000000  0.50000000  4.629630e-03 
  0.16666667  0.00000000  0.66666667  4.629630e-03 
  0.16666667  0.00000000  0.83333333  4.629630e-03 
  0.16666667  0.16666667  0.00000000  4.629630e-03 
  0.16666667  0.16666667  0.16666667  4.629630e-03 
  0.16666667  0.16666667  0.33333333  4.629630e-03 
  0.16666667  0.16666667  0.50000000  4.629630e-03 
  0.16666667  0.16666667  0.66666667  4.629630e-03 
  0.16666667  0.16666667  0.83333333  4.629630e-03 
  0.16666667  0.33333333  0.00000000  4.629630e-03 
  0.16666667  0.33333333  0.16666667  4.629630e-03 
  0.16666667  0.33333333  0.33333333  4.629630e-03 
  0.16666667  0.33333333  0.50000000  4.629630e-03 
  0.16666667  0.33333333  0.66666667  4.629630e-03 
  0.16666667  0.33333333  0.83333333  4.629630e-03 
  0.16666667  0.50000000  0.00000000  4.629630e-03 
  0.16666667  0.50000000  0.16666667  4.629630e-03 
  0.16666667  0.50000000  0.33333333  4.629630e-03 
  0.16666667  0.50000000  0.50000000  4.629630e-03 
  0.16666667  0.50000000  0.66666667  4.629630e-03 
  0.16666667  0.50000000  0.83333333  4.629630e-03 
  0.16666667  0.66666667  0.00000000  4.629630e-03 
  0.16666667  0.66666667  0.16666667  4.629630e-03 
  0.16666667  0.66666667  0.33333333  4.629630e-03 
  0.16666667  0.66666667  0.50000000  4.629630e-03 
  0.16666667  0.66666667  0.66666667  4.629630e-03 
  0.16666667  0.66666667  0.83333333  4.629630e-03 
  0.16666667  0.83333333  0.00000000  4.629630e-03 
  0.16666667  0.83333333  0.16666667  4.629630e-03 
  0.16666667  0.83333333  0.33333333  4.629630e-03 
  0.16666667  0.83333333  0.50000000  4.629630e-03 
  0.16666667  0.83333333  0.66666667  4.629630e-03 
  0.16666667  0.83333333  0.83333333  4.629630e-03 
  0.33333333  0.00000000  0.00000000  4.629630e-03 
  0.33333333  0.00000000  0.16666667  4.629630e-03 
  0.33333333  0.00000000  0.33333333  4.629630e-03 
  0.33333333  0.00000000  0.50000000  4.629630e-03 
  0.33333333  0.00000000  0.66666667  4.629630e-03 
  0.33333333  0.00000000  0.83333333  4.629630e-03 
  0.33333333  0.16666667  0.00000000  4.629630e-03 
  0.33333333  0.16666667  0.16666667  4.629630e-03 
  0.33333333  0.16666667  0.33333333  4.629630e-03 
  0.33333333  0.16666667  0.50000000  4.629630e-03 
  0.33333333  0.16666667  0.66666667  4.629630e-03 
  0.33333333  0.16666667  0.83333333  4.629630e-03 
  0.33333333  0.33333333  0.00000000  4.629630e-03 
  0.33333333  0.33333333  0.16666667  4.629630e-03 
  0.33333333  0.33333333  0.33333333  4.629630e-03 
  0.33333333  0.33333333  0.50000000  4.629630e-03 
  0.33333333  0.33333333  0.66666667  4.629630e-03 
  0.33333333  0.33333333  0.83333333  4.629630e-03 
  0.33333333  0.50000000  0.00000000  4.629630e-03 
  0.33333333  0.50000000  0.16666667  4.629630e-03 
  0.33333333  0.50000000  0.33333333  4.629630e-03 
  0.33333333  0.50000000  0.50000000  4.629630e-03 
  0.33333333  0.50000000  0.66666667  4.629630e-03 
  0.33333333  0.50000000  0.83333333  4.629630e-03 
  0.33333333  0.66666667  0.00000000  4.629630e-03 
  0.33333333  0.66666667  0.16666667  4.629630e-03 
  0.33333333  0.66666667  0.33333333  4.629630e-03 
  0.33333333  0.66666667  0.50000000  4.629630e-03 
  0.33333333  0.66666667  0.66666667  4.629630e-03 
  0.33333333  0.66666667  0.83333333  4.629630e-03 
  0.33333333  0.83333333  0.00000000  4.629630e-03 
  0.33333333  0.83333333  0.16666667  4.629630e-03 
  0.33333333  0.83333333  0.33333333  4.629630e-03 
  0.33333333  0.83333333  0.50000000  4.629630e-03 
  0.33333333  0.83333333  0.66666667  4.629630e-03 
  0.33333333  0.83333333  0.83333333  4.629630e-03 
  0.50000000  0.00000000  0.00000000  4.629630e-03 
  0.50000000  0.00000000  0.16666667  4.629630e-03 
  0.50000000  0.00000000  0.33333333  4.629630e-03 
  0.50000000  0.00000000  0.50000000  4.629630e-03 
  0.50000000  0.00000000  0.66666667  4.629630e-03 
  0.50000000  0.00000000  0.83333333  4.629630e-03 
  0.50000000  0.16666667  0.00000000  4.629630e-03 
  0.50000000  0.16666667  0.16666667  4.629630e-03 
  0.50000000  0.16666667  0.33333333  4.629630e-03 
  0.50000000  0.16666667  0.50000000  4.629630e-03 
  0.50000000  0.16666667  0.66666667  4.629630e-03 
  0.50000000  0.16666667  0.83333333  4.629630e-03 
  0.50000000  0.33333333  0.00000000  4.629630e-03 
  0.50000000  0.33333333  0.16666667  4.629630e-03 
  0.50000000  0.33333333  0.33333333  4.629630e-03 
  0.50000000  0.33333333  0.50000000  4.629630e-03 
  0.50000000  0.33333333  0.66666667  4.629630e-03 
  0.50000000  0.33333333  0.83333333  4.629630e-03 
  0.50000000  0.50000000  0.00000000  4.629630e-03 
  0.50000000  0.50000000  0.16666667  4.629630e-03 
  0.50000000  0.50000000  0.33333333  4.629630e-03 
  0.50000000  0.50000000  0.50000000  4.629630e-03 
  0.50000000  0.50000000  0.66666667  4.629630e-03 
  0.50000000  0.50000000  0.83333333  4.629630e-03 
  0.50000000  0.66666667  0.00000000  4.629630e-03 
  0.50000000  0.66666667  0.16666667  4.629630e-03 
  0.50000000  0.66666667  0.33333333  4.629630e-03 
  0.50000000  0.66666667  0.50000000  4.629630e-03 
  0.50000000  0.66666667  0.66666667  4.629630e-03 
  0.50000000  0.66666667  0.83333333  4.629630e-03 
  0.50000000  0.83333333  0.00000000  4.629630e-03 
  0.50000000  0.83333333  0.16666667  4.629630e-03 
  0.50000000  0.83333333  0.33333333  4.629630e-03 
  0.50000000  0.83333333  0.50000000  4.629630e-03 
  0.50000000  0.83333333  0.66666667  4.629630e-03 
  0.50000000  0.83333333  0.83333333  4.629630e-03 
  0.66666667  0.00000000  0.00000000  4.629630e-03 
  0.66666667  0.00000000  0.16666667  4.629630e-03 
  0.66666667  0.00000000  0.33333333  4.629630e-03 
  0.66666667  0.00000000  0.50000000  4.629630e-03 
  0.66666667  0.00000000  0.66666667  4.629630e-03 
  0.66666667  0.00000000  0.83333333  4.629630e-03 
  0.66666667  0.16666667  0.00000000  4.629630e-03 
  0.66666667  0.16666667  0.16666667  4.629630e-03 
  0.66666667  0.16666667  0.33333333  4.629630e-03 
  0.66666667  0.16666667  0.50000000  4.629630e-03 
  0.66666667  0.16666667  0.66666667  4.629630e-03 
  0.66666667  0.16666667  0.83333333  4.629630e-03 
  0.66666667  0.33333333  0.00000000  4.629630e-03 
  0.66666667  0.33333333  0.16666667  4.629630e-03 
  0.66666667  0.33333333  0.33333333  4.629630e-03 
  0.66666667  0.33333333  0.50000000  4.629630e-03 
  0.66666667  0.33333333  0.66666667  4.629630e-03 
  0.66666667  0.33333333  0.83333333  4.629630e-03 
  0.66666667  0.50000000  0.00000000  4.629630e-03 
  0.66666667  0.50000000  0.16666667  4.629630e-03 
  0.66666667  0.50000000  0.33333333  4.629630e-03 
  0.66666667  0.50000000  0.50000000  4.629630e-03 
  0.66666667  0.50000000  0.66666667  4.629630e-03 
  0.66666667  0.50000000  0.83333333  4.629630e-03 
  0.66666667  0.66666667  0.00000000  4.629630e-03 
  0.66666667  0.66666667  0.16666667  4.629630e-03 
  0.66666667  0.66666667  0.33333333  4.629630e-03 
  0.66666667  0.66666667  0.50000000  4.629630e-03 
  0.66666667  0.66666667  0.66666667  4.629630e-03 
  0.66666667  0.66666667  0.83333333  4.629630e-03 
  0.66666667  0.83333333  0.00000000  4.629630e-03 
  0.66666667  0.83333333  0.16666667  4.629630e-03 
  0.66666667  0.83333333  0.33333333  4.629630e-03 
  0.66666667  0.83333333  0.50000000  4.629630e-03 
  0.66666667  0.83333333  0.66666667  4.629630e-03 
  0.66666667  0.83333333  0.83333333  4.629630e-03 
  0.83333333  0.00000000  0.00000000  4.629630e-03 
  0.83333333  0.00000000  0.16666667  4.629630e-03 
  0.83333333  0.00000000  0.33333333  4.629630e-03 
  0.83333333  0.00000000  0.50000000  4.629630e-03 
  0.83333333  0.00000000  0.66666667  4.629630e-03 
  0.83333333  0.00000000  0.83333333  4.629630e-03 
  0.83333333  0.16666667  0.00000000  4.629630e-03 
  0.83333333  0.16666667  0.16666667  4.629630e-03 
  0.83333333  0.16666667  0.33333333  4.629630e-03 
  0.83333333  0.16666667  0.50000000  4.629630e-03 
  0.83333333  0.16666667  0.66666667  4.629630e-03 
  0.83333333  0.16666667  0.83333333  4.629630e-03 
  0.83333333  0.33333333  0.00000000  4.629630e-03 
  0.83333333  0.33333333  0.16666667  4.629630e-03 
  0.83333333  0.33333333  0.33333333  4.629630e-03 
  0.83333333  0.33333333  0.50000000  4.629630e-03 
  0.83333333  0.33333333  0.66666667  4.629630e-03 
  0.83333333  0.33333333  0.83333333  4.629630e-03 
  0.83333333  0.50000000  0.00000000  4.629630e-03 
  0.83333333  0.50000000  0.16666667  4.629630e-03 
  0.83333333  0.50000000  0.33333333  4.629630e-03 
  0.83333333  0.50000000  0.50000000  4.629630e-03 
  0.83333333  0.50000000  0.66666667  4.629630e-03 
  0.83333333  0.50000000  0.83333333  4.629630e-03 
  0.83333333  0.66666667  0.00000000  4.629630e-03 
  0.83333333  0.66666667  0.16666667  4.629630e-03 
  0.83333333  0.66666667  0.33333333  4.629630e-03 
  0.83333333  0.66666667  0.50000000  4.629630e-03 
  0.83333333  0.66666667  0.66666667  4.629630e-03 
  0.83333333  0.66666667  0.83333333  4.629630e-03 
  0.83333333  0.83333333  0.00000000  4.629630e-03 
  0.83333333  0.83333333  0.16666667  4.629630e-03 
  0.83333333  0.83333333  0.33333333  4.629630e-03 
  0.83333333  0.83333333  0.50000000  4.629630e-03 
  0.83333333  0.83333333  0.66666667  4.629630e-03 
  0.83333333  0.83333333  0.83333333  4.629630e-03
