 &control
    calculation     = 'nscf'
    prefix          = 'pb'
    wf_collect      = .false.
    pseudo_dir      = './'
    outdir          = './'
 /
 &system
    ibrav           = 2
    celldm(1)       = 9.27
    nat             = 1
    ntyp            = 1
    ecutwfc         = 60
    occupations     = 'smearing'
    smearing        = 'mp'
    degauss         = 0.02
 /
 &electrons
    diagonalization = 'david'
    mixing_beta     = 0.7
    conv_thr        = 1.0d-10
 /
ATOMIC_SPECIES
 Pb 207.2   pb_s.UPF
ATOMIC_POSITIONS crystal
Pb        0.000000000   0.000000000   0.000000000
K_POINTS crystal
27
0.0000000000000000   0.0000000000000000   0.0000000000000000   0.037037037037
0.0000000000000000   0.0000000000000000   0.3333333333333333   0.037037037037
0.0000000000000000   0.0000000000000000   0.6666666666666667   0.037037037037
0.0000000000000000   0.3333333333333333   0.0000000000000000   0.037037037037
0.0000000000000000   0.3333333333333333   0.3333333333333333   0.037037037037
0.0000000000000000   0.3333333333333333   0.6666666666666667   0.037037037037
0.0000000000000000   0.6666666666666667   0.0000000000000000   0.037037037037
0.0000000000000000   0.6666666666666667   0.3333333333333333   0.037037037037
0.0000000000000000   0.6666666666666667   0.6666666666666667   0.037037037037
0.3333333333333333   0.0000000000000000   0.0000000000000000   0.037037037037
0.3333333333333333   0.0000000000000000   0.3333333333333333   0.037037037037
0.3333333333333333   0.0000000000000000   0.6666666666666667   0.037037037037
0.3333333333333333   0.3333333333333333   0.0000000000000000   0.037037037037
0.3333333333333333   0.3333333333333333   0.3333333333333333   0.037037037037
0.3333333333333333   0.3333333333333333   0.6666666666666667   0.037037037037
0.3333333333333333   0.6666666666666667   0.0000000000000000   0.037037037037
0.3333333333333333   0.6666666666666667   0.3333333333333333   0.037037037037
0.3333333333333333   0.6666666666666667   0.6666666666666667   0.037037037037
0.6666666666666667   0.0000000000000000   0.0000000000000000   0.037037037037
0.6666666666666667   0.0000000000000000   0.3333333333333333   0.037037037037
0.6666666666666667   0.0000000000000000   0.6666666666666667   0.037037037037
0.6666666666666667   0.3333333333333333   0.0000000000000000   0.037037037037
0.6666666666666667   0.3333333333333333   0.3333333333333333   0.037037037037
0.6666666666666667   0.3333333333333333   0.6666666666666667   0.037037037037
0.6666666666666667   0.6666666666666667   0.0000000000000000   0.037037037037
0.6666666666666667   0.6666666666666667   0.3333333333333333   0.037037037037
0.6666666666666667   0.6666666666666667   0.6666666666666667   0.037037037037
