&input 
fildyn='ch4.dyn.xml', 
asr='zero-dim' /
