 &control
    calculation = 'scf'
    restart_mode='from_scratch',
    prefix='silicon',
    pseudo_dir = '$PSEUDO_DIR/',
    outdir='$TMP_DIR/'
    tstress = .TRUE.
 /
 &system    
    ibrav=  2, celldm(1) =10.20, nat=  2, ntyp= 1,
    ecutwfc =12.0,  nbnd = 8,
    input_dft='pbe0', nqx1 = $nq, nqx2 = $nq, nqx3 = $nq, 
    exxdiv_treatment='$exxdiv_treatment'
    ecutvcut=$ecutvcut
    x_gamma_extrapolation = $x_gamma_extrapolation
 /
 &electrons
    mixing_beta = 0.7 
 /
ATOMIC_SPECIES
 Si  28.086  Si.pz-vbc.UPF
ATOMIC_POSITIONS alat
 Si 0.00 0.00 0.00 
 Si 0.25 0.25 0.25 
K_POINTS
  10
   0.1250000  0.1250000  0.1250000   1.00
   0.1250000  0.1250000  0.3750000   3.00
   0.1250000  0.1250000  0.6250000   3.00
   0.1250000  0.1250000  0.8750000   3.00
   0.1250000  0.3750000  0.3750000   3.00
   0.1250000  0.3750000  0.6250000   6.00
   0.1250000  0.3750000  0.8750000   6.00
   0.1250000  0.6250000  0.6250000   3.00
   0.3750000  0.3750000  0.3750000   1.00
   0.3750000  0.3750000  0.6250000   3.00

ADDITIONAL_K_POINTS
  60
   0.0625000  0.0625000  0.0625000   0.0
   0.0625000  0.0625000  0.1875000   0.0
   0.0625000  0.0625000  0.3125000   0.0
   0.0625000  0.0625000  0.4375000   0.0
   0.0625000  0.0625000  0.5625000   0.0
   0.0625000  0.0625000  0.6875000   0.0
   0.0625000  0.0625000  0.8125000   0.0
   0.0625000  0.0625000  0.9375000   0.0
   0.0625000  0.1875000  0.1875000   0.0
   0.0625000  0.1875000  0.3125000   0.0
   0.0625000  0.1875000  0.4375000   0.0
   0.0625000  0.1875000  0.5625000   0.0
   0.0625000  0.1875000  0.6875000   0.0
   0.0625000  0.1875000  0.8125000   0.0
   0.0625000  0.1875000  0.9375000   0.0
   0.0625000  0.3125000  0.3125000   0.0
   0.0625000  0.3125000  0.4375000   0.0
   0.0625000  0.3125000  0.5625000   0.0
   0.0625000  0.3125000  0.6875000   0.0
   0.0625000  0.3125000  0.8125000   0.0
   0.0625000  0.3125000  0.9375000   0.0
   0.0625000  0.4375000  0.4375000   0.0
   0.0625000  0.4375000  0.5625000   0.0
   0.0625000  0.4375000  0.6875000   0.0
   0.0625000  0.4375000  0.8125000   0.0
   0.0625000  0.4375000  0.9375000   0.0
   0.0625000  0.5625000  0.5625000   0.0
   0.0625000  0.5625000  0.6875000   0.0
   0.0625000  0.5625000  0.8125000   0.0
   0.0625000  0.6875000  0.6875000   0.0
   0.0625000  0.6875000  0.8125000   0.0
   0.0625000  0.8125000  0.8125000   0.0
   0.1875000  0.1875000  0.1875000   0.0
   0.1875000  0.1875000  0.3125000   0.0
   0.1875000  0.1875000  0.4375000   0.0
   0.1875000  0.1875000  0.5625000   0.0
   0.1875000  0.1875000  0.6875000   0.0
   0.1875000  0.1875000  0.8125000   0.0
   0.1875000  0.3125000  0.3125000   0.0
   0.1875000  0.3125000  0.4375000   0.0
   0.1875000  0.3125000  0.5625000   0.0
   0.1875000  0.3125000  0.6875000   0.0
   0.1875000  0.3125000  0.8125000   0.0
   0.1875000  0.4375000  0.4375000   0.0
   0.1875000  0.4375000  0.5625000   0.0
   0.1875000  0.4375000  0.6875000   0.0
   0.1875000  0.4375000  0.8125000   0.0
   0.1875000  0.5625000  0.5625000   0.0
   0.1875000  0.5625000  0.6875000   0.0
   0.1875000  0.6875000  0.6875000   0.0
   0.3125000  0.3125000  0.3125000   0.0
   0.3125000  0.3125000  0.4375000   0.0
   0.3125000  0.3125000  0.5625000   0.0
   0.3125000  0.3125000  0.6875000   0.0
   0.3125000  0.4375000  0.4375000   0.0
   0.3125000  0.4375000  0.5625000   0.0
   0.3125000  0.4375000  0.6875000   0.0
   0.3125000  0.5625000  0.5625000   0.0
   0.4375000  0.4375000  0.4375000   0.0
   0.4375000  0.4375000  0.5625000   0.0
