 &CONTROL
                 calculation = 'scf' ,
                restart_mode = 'from_scratch' ,
                      outdir = 'TMP' ,
                  pseudo_dir = '/home/tone/lib/pwscf/pseudo/' ,
                      prefix = 'al' ,
                     tstress = .true. ,
                     tprnfor = .true. ,
 /
 &SYSTEM
                       ibrav = 2,
                   celldm(1) = 7.50,
                         nat = 1,
                        ntyp = 1,
                     ecutwfc = 15.0 ,
                 occupations = 'smearing' ,
                     degauss = 0.05 ,
                    smearing = 'methfessel-paxton' ,
 /
 &ELECTRONS
                 mixing_beta = 0.7 ,
 /
ATOMIC_SPECIES
   Al   26.98000  Al.vbc 
ATOMIC_POSITIONS 
   Al      0.000000000    0.000000000    0.000000000    
K_POINTS 
60 
   0.062500000    0.062500000    0.062500000      1.000000000 
   0.062500000    0.062500000    0.187500000      3.000000000 
   0.062500000    0.062500000    0.312500000      3.000000000 
   0.062500000    0.062500000    0.437500000      3.000000000 
   0.062500000    0.062500000    0.562500000      3.000000000 
   0.062500000    0.062500000    0.687500000      3.000000000 
   0.062500000    0.062500000    0.812500000      3.000000000 
   0.062500000    0.062500000    0.937500000      3.000000000 
   0.062500000    0.187500000    0.187500000      3.000000000 
   0.062500000    0.187500000    0.312500000      6.000000000 
   0.062500000    0.187500000    0.437500000      6.000000000 
   0.062500000    0.187500000    0.562500000      6.000000000 
   0.062500000    0.187500000    0.687500000      6.000000000 
   0.062500000    0.187500000    0.812500000      6.000000000 
   0.062500000    0.187500000    0.937500000      6.000000000 
   0.062500000    0.312500000    0.312500000      3.000000000 
   0.062500000    0.312500000    0.437500000      6.000000000 
   0.062500000    0.312500000    0.562500000      6.000000000 
   0.062500000    0.312500000    0.687500000      6.000000000 
   0.062500000    0.312500000    0.812500000      6.000000000 
   0.062500000    0.312500000    0.937500000      6.000000000 
   0.062500000    0.437500000    0.437500000      3.000000000 
   0.062500000    0.437500000    0.562500000      6.000000000 
   0.062500000    0.437500000    0.687500000      6.000000000 
   0.062500000    0.437500000    0.812500000      6.000000000 
   0.062500000    0.437500000    0.937500000      6.000000000 
   0.062500000    0.562500000    0.562500000      3.000000000 
   0.062500000    0.562500000    0.687500000      6.000000000 
   0.062500000    0.562500000    0.812500000      6.000000000 
   0.062500000    0.687500000    0.687500000      3.000000000 
   0.062500000    0.687500000    0.812500000      6.000000000 
   0.062500000    0.812500000    0.812500000      3.000000000 
   0.187500000    0.187500000    0.187500000      1.000000000 
   0.187500000    0.187500000    0.312500000      3.000000000 
   0.187500000    0.187500000    0.437500000      3.000000000 
   0.187500000    0.187500000    0.562500000      3.000000000 
   0.187500000    0.187500000    0.687500000      3.000000000 
   0.187500000    0.187500000    0.812500000      3.000000000 
   0.187500000    0.312500000    0.312500000      3.000000000 
   0.187500000    0.312500000    0.437500000      6.000000000 
   0.187500000    0.312500000    0.562500000      6.000000000 
   0.187500000    0.312500000    0.687500000      6.000000000 
   0.187500000    0.312500000    0.812500000      6.000000000 
   0.187500000    0.437500000    0.437500000      3.000000000 
   0.187500000    0.437500000    0.562500000      6.000000000 
   0.187500000    0.437500000    0.687500000      6.000000000 
   0.187500000    0.437500000    0.812500000      6.000000000 
   0.187500000    0.562500000    0.562500000      3.000000000 
   0.187500000    0.562500000    0.687500000      6.000000000 
   0.187500000    0.687500000    0.687500000      3.000000000 
   0.312500000    0.312500000    0.312500000      1.000000000 
   0.312500000    0.312500000    0.437500000      3.000000000 
   0.312500000    0.312500000    0.562500000      3.000000000 
   0.312500000    0.312500000    0.687500000      3.000000000 
   0.312500000    0.437500000    0.437500000      3.000000000 
   0.312500000    0.437500000    0.562500000      6.000000000 
   0.312500000    0.437500000    0.687500000      6.000000000 
   0.312500000    0.562500000    0.562500000      3.000000000 
   0.437500000    0.437500000    0.437500000      1.000000000 
   0.437500000    0.437500000    0.562500000      3.000000000 

