 &control
    calculation='nscf'
    pseudo_dir = '/home/giannozz/New-sesame/pseudo/',
    outdir='/home/giannozz/tmp/',
    prefix='cu'
 /
 &system
    ibrav = 2, celldm(1) =6.73, nat= 1, ntyp= 1,
    ecutwfc = 25.0, ecutrho = 300.0, nbnd = 8
 /
 &electrons
 /
ATOMIC_SPECIES
 Cu  63.55 CuUS.RRKJ3.UPF
ATOMIC_POSITIONS
 Cu 0.0 0.0 0.0
K_POINTS
 28
   0.0 0.0 0.0 1.0
   0.0 0.0 0.1 1.0
   0.0 0.0 0.2 1.0
   0.0 0.0 0.3 1.0
   0.0 0.0 0.4 1.0
   0.0 0.0 0.5 1.0
   0.0 0.0 0.6 1.0
   0.0 0.0 0.7 1.0
   0.0 0.0 0.8 1.0
   0.0 0.0 0.9 1.0
   0.0 0.0 1.0 1.0
   0.0 0.0 0.0 1.0
   0.0 0.1 0.1 1.0
   0.0 0.2 0.2 1.0
   0.0 0.3 0.3 1.0
   0.0 0.4 0.4 1.0
   0.0 0.5 0.5 1.0
   0.0 0.6 0.6 1.0
   0.0 0.7 0.7 1.0
   0.0 0.8 0.8 1.0
   0.0 0.9 0.9 1.0
   0.0 1.0 1.0 1.0
   0.0 0.0 0.0 1.0
   0.1 0.1 0.1 1.0
   0.2 0.2 0.2 1.0
   0.3 0.3 0.3 1.0
   0.4 0.4 0.4 1.0
   0.5 0.5 0.5 1.0
