&control
    calculation = 'scf'
    title = 'TDDFPT CH4 Test (Environ)'
    restart_mode='from_scratch',
    pseudo_dir = '../pseudo',
    outdir='./out',
    prefix='ch4'
/
&system
    ibrav = 1,
    celldm(1) = 20,
    nat = 5,
    ntyp = 2,
    ecutwfc = 25,
    nosym=.true.
    do_environ=.true.
/
&electrons
    diagonalization = 'davidson'
    mixing_mode = 'plain',
    conv_thr =  1.0d-8,
    mixing_beta = 0.7
    electron_maxstep = 100
 /
&environ
    verbose = 0
    environ_thr = 1.d-1
    environ_type = 'input'
    tolrhopol = 1.D-12
    mixrhopol = 0.6
    env_static_permittivity = 78.3D0
    env_surface_tension = 0.D0
    env_pressure = 0.D0
/
ATOMIC_SPECIES
C 12.001 C.pz-vbc.UPF
H  1.008 H.pz-vbc.UPF
ATOMIC_POSITIONS {Angstrom}
C        0.000000000   0.000000000   0.000000000
H        0.642814093   0.642814093   0.642814093
H       -0.642814093  -0.642814093   0.642814093
H        0.642814093  -0.642814093  -0.642814093
H       -0.642814093   0.642814093  -0.642814093
K_POINTS {gamma}

