&control
        calculation='scf'
        restart_mode='from_scratch',
        prefix='quartz',
        pseudo_dir='/u/cm/profeta/PW/O-sesame/pseudo/',
        outdir='/u/cm/profeta/tmp/'
 /
 &system
        ibrav=0,
        celldm(1)=1.,
        nat=9, ntyp=2,
        ecutwfc = 80, ecutrho = 320.0
        nspin=1,
 /
 &electrons
        conv_thr = 1.0d-8
        mixing_beta=0.1
 /
ATOMIC_SPECIES
Si 28.1  SiPBE_nc.UPF
O 16.  OPBE_nc.UPF
ATOMIC_POSITIONS {crystal}
Si 0.4701          0.00            0.3333333333
Si 0.00            0.4701          0.6666666667
Si -0.4701         -0.4701         0.0
O  0.4139          0.2674          0.2144
O   -0.2674         .1465           .5477333333
O   -.1465          -0.4139         .8810666667
O   0.2674          0.4139          -0.2144
O   .1465           -0.2674         .4522666667
O   -0.4139         -.1465          .1189333333
CELL_PARAMETERS {hexagonal}
4.6415377       -8.0393791      0.0
4.6415377       8.0393791       0.0
0.0             0.0             10.211800
K_POINTS {automatic}
2 2 2   1 1 1
