&CONTROL
  calculation  = "scf",
  prefix       = "H2AB",
  tstress      = .false.,
  tprnfor      = .false.,
  pseudo_dir = '/home/guido/InCorso.d/2015.d/MOPDOS.d/2015.01.19_espresso_svn11314.d/pseudo/',
  outdir='/home/guido/InCorso.d/2015.d/MOPDOS.d/2015.01.19_espresso_svn11314.d/tempdir/'
/
&SYSTEM
  ibrav     = 6, 
  celldm(1) = 15.d0
  celldm(3) = 2.d0
  nat       = 4,
  ntyp      = 1,
  ecutwfc   = 24.0,
  nbnd      = 8
  nspin     = 1
/
&ELECTRONS
/
ATOMIC_SPECIES
H  1.00  H_US.van
ATOMIC_POSITIONS {bohr}
H   0.0  -1.1  0.0
H   0.0   1.1  0.0
H   0.0  -1.0  15.0
H   0.0   1.0  15.0
K_POINTS Gamma

