&control
    calculation = 'scf'
    title = 'TDDFPT CH4 Test'
    restart_mode='from_scratch',
    pseudo_dir = '../pseudo',
    outdir='./out',
    prefix='CH4'
 /
 &system
    ibrav = 1,
    celldm(1) = 20,
    nat = 5,
    nbnd = 20,
    ntyp = 2,
    ecutwfc = 25,
/
 &electrons
 /
ATOMIC_SPECIES
C 1.0 C.pz-vbc.UPF
H 1.0 H.pz-vbc.UPF
ATOMIC_POSITIONS {Angstrom}
C        0.000000000   0.000000000   0.000000000
H        0.642814093   0.642814093   0.642814093
H       -0.642814093  -0.642814093   0.642814093
H        0.642814093  -0.642814093  -0.642814093
H       -0.642814093   0.642814093  -0.642814093
K_POINTS {gamma}

