 &control
    calculation='nscf',
    prefix='MgB2',
    pseudo_dir = '../pp/',
    outdir='./',
    tprnfor = .true.,
    tstress = .true.,
    etot_conv_thr = 1.0d-5
    forc_conv_thr = 1.0d-4
 /
 &system
    ibrav = 4,
    celldm(1) = 5.8260252227888,
    celldm(3) = 1.1420694129095,
    nat=  3,
    ntyp = 2,
    ecutwfc = 40
    smearing = 'mp'
    occupations = 'smearing'
    degauss = 0.02
 /
 &electrons
    diagonalization = 'david'
    mixing_mode = 'plain'
    mixing_beta = 0.7
    conv_thr =  1.0d-9
 /
ATOMIC_SPECIES
 Mg  24.305  Mg.pz-n-vbc.UPF
 B   10.811  B.pz-vbc.UPF
ATOMIC_POSITIONS crystal
Mg       0.000000000   0.000000000   0.000000000
B        0.333333333   0.666666667   0.500000000
B        0.666666667   0.333333333   0.500000000
K_POINTS crystal
216
  0.00000000  0.00000000  0.00000000  4.629630e-03 
  0.00000000  0.00000000  0.16666667  4.629630e-03 
  0.00000000  0.00000000  0.33333333  4.629630e-03 
  0.00000000  0.00000000  0.50000000  4.629630e-03 
  0.00000000  0.00000000  0.66666667  4.629630e-03 
  0.00000000  0.00000000  0.83333333  4.629630e-03 
  0.00000000  0.16666667  0.00000000  4.629630e-03 
  0.00000000  0.16666667  0.16666667  4.629630e-03 
  0.00000000  0.16666667  0.33333333  4.629630e-03 
  0.00000000  0.16666667  0.50000000  4.629630e-03 
  0.00000000  0.16666667  0.66666667  4.629630e-03 
  0.00000000  0.16666667  0.83333333  4.629630e-03 
  0.00000000  0.33333333  0.00000000  4.629630e-03 
  0.00000000  0.33333333  0.16666667  4.629630e-03 
  0.00000000  0.33333333  0.33333333  4.629630e-03 
  0.00000000  0.33333333  0.50000000  4.629630e-03 
  0.00000000  0.33333333  0.66666667  4.629630e-03 
  0.00000000  0.33333333  0.83333333  4.629630e-03 
  0.00000000  0.50000000  0.00000000  4.629630e-03 
  0.00000000  0.50000000  0.16666667  4.629630e-03 
  0.00000000  0.50000000  0.33333333  4.629630e-03 
  0.00000000  0.50000000  0.50000000  4.629630e-03 
  0.00000000  0.50000000  0.66666667  4.629630e-03 
  0.00000000  0.50000000  0.83333333  4.629630e-03 
  0.00000000  0.66666667  0.00000000  4.629630e-03 
  0.00000000  0.66666667  0.16666667  4.629630e-03 
  0.00000000  0.66666667  0.33333333  4.629630e-03 
  0.00000000  0.66666667  0.50000000  4.629630e-03 
  0.00000000  0.66666667  0.66666667  4.629630e-03 
  0.00000000  0.66666667  0.83333333  4.629630e-03 
  0.00000000  0.83333333  0.00000000  4.629630e-03 
  0.00000000  0.83333333  0.16666667  4.629630e-03 
  0.00000000  0.83333333  0.33333333  4.629630e-03 
  0.00000000  0.83333333  0.50000000  4.629630e-03 
  0.00000000  0.83333333  0.66666667  4.629630e-03 
  0.00000000  0.83333333  0.83333333  4.629630e-03 
  0.16666667  0.00000000  0.00000000  4.629630e-03 
  0.16666667  0.00000000  0.16666667  4.629630e-03 
  0.16666667  0.00000000  0.33333333  4.629630e-03 
  0.16666667  0.00000000  0.50000000  4.629630e-03 
  0.16666667  0.00000000  0.66666667  4.629630e-03 
  0.16666667  0.00000000  0.83333333  4.629630e-03 
  0.16666667  0.16666667  0.00000000  4.629630e-03 
  0.16666667  0.16666667  0.16666667  4.629630e-03 
  0.16666667  0.16666667  0.33333333  4.629630e-03 
  0.16666667  0.16666667  0.50000000  4.629630e-03 
  0.16666667  0.16666667  0.66666667  4.629630e-03 
  0.16666667  0.16666667  0.83333333  4.629630e-03 
  0.16666667  0.33333333  0.00000000  4.629630e-03 
  0.16666667  0.33333333  0.16666667  4.629630e-03 
  0.16666667  0.33333333  0.33333333  4.629630e-03 
  0.16666667  0.33333333  0.50000000  4.629630e-03 
  0.16666667  0.33333333  0.66666667  4.629630e-03 
  0.16666667  0.33333333  0.83333333  4.629630e-03 
  0.16666667  0.50000000  0.00000000  4.629630e-03 
  0.16666667  0.50000000  0.16666667  4.629630e-03 
  0.16666667  0.50000000  0.33333333  4.629630e-03 
  0.16666667  0.50000000  0.50000000  4.629630e-03 
  0.16666667  0.50000000  0.66666667  4.629630e-03 
  0.16666667  0.50000000  0.83333333  4.629630e-03 
  0.16666667  0.66666667  0.00000000  4.629630e-03 
  0.16666667  0.66666667  0.16666667  4.629630e-03 
  0.16666667  0.66666667  0.33333333  4.629630e-03 
  0.16666667  0.66666667  0.50000000  4.629630e-03 
  0.16666667  0.66666667  0.66666667  4.629630e-03 
  0.16666667  0.66666667  0.83333333  4.629630e-03 
  0.16666667  0.83333333  0.00000000  4.629630e-03 
  0.16666667  0.83333333  0.16666667  4.629630e-03 
  0.16666667  0.83333333  0.33333333  4.629630e-03 
  0.16666667  0.83333333  0.50000000  4.629630e-03 
  0.16666667  0.83333333  0.66666667  4.629630e-03 
  0.16666667  0.83333333  0.83333333  4.629630e-03 
  0.33333333  0.00000000  0.00000000  4.629630e-03 
  0.33333333  0.00000000  0.16666667  4.629630e-03 
  0.33333333  0.00000000  0.33333333  4.629630e-03 
  0.33333333  0.00000000  0.50000000  4.629630e-03 
  0.33333333  0.00000000  0.66666667  4.629630e-03 
  0.33333333  0.00000000  0.83333333  4.629630e-03 
  0.33333333  0.16666667  0.00000000  4.629630e-03 
  0.33333333  0.16666667  0.16666667  4.629630e-03 
  0.33333333  0.16666667  0.33333333  4.629630e-03 
  0.33333333  0.16666667  0.50000000  4.629630e-03 
  0.33333333  0.16666667  0.66666667  4.629630e-03 
  0.33333333  0.16666667  0.83333333  4.629630e-03 
  0.33333333  0.33333333  0.00000000  4.629630e-03 
  0.33333333  0.33333333  0.16666667  4.629630e-03 
  0.33333333  0.33333333  0.33333333  4.629630e-03 
  0.33333333  0.33333333  0.50000000  4.629630e-03 
  0.33333333  0.33333333  0.66666667  4.629630e-03 
  0.33333333  0.33333333  0.83333333  4.629630e-03 
  0.33333333  0.50000000  0.00000000  4.629630e-03 
  0.33333333  0.50000000  0.16666667  4.629630e-03 
  0.33333333  0.50000000  0.33333333  4.629630e-03 
  0.33333333  0.50000000  0.50000000  4.629630e-03 
  0.33333333  0.50000000  0.66666667  4.629630e-03 
  0.33333333  0.50000000  0.83333333  4.629630e-03 
  0.33333333  0.66666667  0.00000000  4.629630e-03 
  0.33333333  0.66666667  0.16666667  4.629630e-03 
  0.33333333  0.66666667  0.33333333  4.629630e-03 
  0.33333333  0.66666667  0.50000000  4.629630e-03 
  0.33333333  0.66666667  0.66666667  4.629630e-03 
  0.33333333  0.66666667  0.83333333  4.629630e-03 
  0.33333333  0.83333333  0.00000000  4.629630e-03 
  0.33333333  0.83333333  0.16666667  4.629630e-03 
  0.33333333  0.83333333  0.33333333  4.629630e-03 
  0.33333333  0.83333333  0.50000000  4.629630e-03 
  0.33333333  0.83333333  0.66666667  4.629630e-03 
  0.33333333  0.83333333  0.83333333  4.629630e-03 
  0.50000000  0.00000000  0.00000000  4.629630e-03 
  0.50000000  0.00000000  0.16666667  4.629630e-03 
  0.50000000  0.00000000  0.33333333  4.629630e-03 
  0.50000000  0.00000000  0.50000000  4.629630e-03 
  0.50000000  0.00000000  0.66666667  4.629630e-03 
  0.50000000  0.00000000  0.83333333  4.629630e-03 
  0.50000000  0.16666667  0.00000000  4.629630e-03 
  0.50000000  0.16666667  0.16666667  4.629630e-03 
  0.50000000  0.16666667  0.33333333  4.629630e-03 
  0.50000000  0.16666667  0.50000000  4.629630e-03 
  0.50000000  0.16666667  0.66666667  4.629630e-03 
  0.50000000  0.16666667  0.83333333  4.629630e-03 
  0.50000000  0.33333333  0.00000000  4.629630e-03 
  0.50000000  0.33333333  0.16666667  4.629630e-03 
  0.50000000  0.33333333  0.33333333  4.629630e-03 
  0.50000000  0.33333333  0.50000000  4.629630e-03 
  0.50000000  0.33333333  0.66666667  4.629630e-03 
  0.50000000  0.33333333  0.83333333  4.629630e-03 
  0.50000000  0.50000000  0.00000000  4.629630e-03 
  0.50000000  0.50000000  0.16666667  4.629630e-03 
  0.50000000  0.50000000  0.33333333  4.629630e-03 
  0.50000000  0.50000000  0.50000000  4.629630e-03 
  0.50000000  0.50000000  0.66666667  4.629630e-03 
  0.50000000  0.50000000  0.83333333  4.629630e-03 
  0.50000000  0.66666667  0.00000000  4.629630e-03 
  0.50000000  0.66666667  0.16666667  4.629630e-03 
  0.50000000  0.66666667  0.33333333  4.629630e-03 
  0.50000000  0.66666667  0.50000000  4.629630e-03 
  0.50000000  0.66666667  0.66666667  4.629630e-03 
  0.50000000  0.66666667  0.83333333  4.629630e-03 
  0.50000000  0.83333333  0.00000000  4.629630e-03 
  0.50000000  0.83333333  0.16666667  4.629630e-03 
  0.50000000  0.83333333  0.33333333  4.629630e-03 
  0.50000000  0.83333333  0.50000000  4.629630e-03 
  0.50000000  0.83333333  0.66666667  4.629630e-03 
  0.50000000  0.83333333  0.83333333  4.629630e-03 
  0.66666667  0.00000000  0.00000000  4.629630e-03 
  0.66666667  0.00000000  0.16666667  4.629630e-03 
  0.66666667  0.00000000  0.33333333  4.629630e-03 
  0.66666667  0.00000000  0.50000000  4.629630e-03 
  0.66666667  0.00000000  0.66666667  4.629630e-03 
  0.66666667  0.00000000  0.83333333  4.629630e-03 
  0.66666667  0.16666667  0.00000000  4.629630e-03 
  0.66666667  0.16666667  0.16666667  4.629630e-03 
  0.66666667  0.16666667  0.33333333  4.629630e-03 
  0.66666667  0.16666667  0.50000000  4.629630e-03 
  0.66666667  0.16666667  0.66666667  4.629630e-03 
  0.66666667  0.16666667  0.83333333  4.629630e-03 
  0.66666667  0.33333333  0.00000000  4.629630e-03 
  0.66666667  0.33333333  0.16666667  4.629630e-03 
  0.66666667  0.33333333  0.33333333  4.629630e-03 
  0.66666667  0.33333333  0.50000000  4.629630e-03 
  0.66666667  0.33333333  0.66666667  4.629630e-03 
  0.66666667  0.33333333  0.83333333  4.629630e-03 
  0.66666667  0.50000000  0.00000000  4.629630e-03 
  0.66666667  0.50000000  0.16666667  4.629630e-03 
  0.66666667  0.50000000  0.33333333  4.629630e-03 
  0.66666667  0.50000000  0.50000000  4.629630e-03 
  0.66666667  0.50000000  0.66666667  4.629630e-03 
  0.66666667  0.50000000  0.83333333  4.629630e-03 
  0.66666667  0.66666667  0.00000000  4.629630e-03 
  0.66666667  0.66666667  0.16666667  4.629630e-03 
  0.66666667  0.66666667  0.33333333  4.629630e-03 
  0.66666667  0.66666667  0.50000000  4.629630e-03 
  0.66666667  0.66666667  0.66666667  4.629630e-03 
  0.66666667  0.66666667  0.83333333  4.629630e-03 
  0.66666667  0.83333333  0.00000000  4.629630e-03 
  0.66666667  0.83333333  0.16666667  4.629630e-03 
  0.66666667  0.83333333  0.33333333  4.629630e-03 
  0.66666667  0.83333333  0.50000000  4.629630e-03 
  0.66666667  0.83333333  0.66666667  4.629630e-03 
  0.66666667  0.83333333  0.83333333  4.629630e-03 
  0.83333333  0.00000000  0.00000000  4.629630e-03 
  0.83333333  0.00000000  0.16666667  4.629630e-03 
  0.83333333  0.00000000  0.33333333  4.629630e-03 
  0.83333333  0.00000000  0.50000000  4.629630e-03 
  0.83333333  0.00000000  0.66666667  4.629630e-03 
  0.83333333  0.00000000  0.83333333  4.629630e-03 
  0.83333333  0.16666667  0.00000000  4.629630e-03 
  0.83333333  0.16666667  0.16666667  4.629630e-03 
  0.83333333  0.16666667  0.33333333  4.629630e-03 
  0.83333333  0.16666667  0.50000000  4.629630e-03 
  0.83333333  0.16666667  0.66666667  4.629630e-03 
  0.83333333  0.16666667  0.83333333  4.629630e-03 
  0.83333333  0.33333333  0.00000000  4.629630e-03 
  0.83333333  0.33333333  0.16666667  4.629630e-03 
  0.83333333  0.33333333  0.33333333  4.629630e-03 
  0.83333333  0.33333333  0.50000000  4.629630e-03 
  0.83333333  0.33333333  0.66666667  4.629630e-03 
  0.83333333  0.33333333  0.83333333  4.629630e-03 
  0.83333333  0.50000000  0.00000000  4.629630e-03 
  0.83333333  0.50000000  0.16666667  4.629630e-03 
  0.83333333  0.50000000  0.33333333  4.629630e-03 
  0.83333333  0.50000000  0.50000000  4.629630e-03 
  0.83333333  0.50000000  0.66666667  4.629630e-03 
  0.83333333  0.50000000  0.83333333  4.629630e-03 
  0.83333333  0.66666667  0.00000000  4.629630e-03 
  0.83333333  0.66666667  0.16666667  4.629630e-03 
  0.83333333  0.66666667  0.33333333  4.629630e-03 
  0.83333333  0.66666667  0.50000000  4.629630e-03 
  0.83333333  0.66666667  0.66666667  4.629630e-03 
  0.83333333  0.66666667  0.83333333  4.629630e-03 
  0.83333333  0.83333333  0.00000000  4.629630e-03 
  0.83333333  0.83333333  0.16666667  4.629630e-03 
  0.83333333  0.83333333  0.33333333  4.629630e-03 
  0.83333333  0.83333333  0.50000000  4.629630e-03 
  0.83333333  0.83333333  0.66666667  4.629630e-03 
  0.83333333  0.83333333  0.83333333  4.629630e-03 


