&INPUT
  fildyn = 'bn.dyn.xml'
  flfrc = 'bn.frc'
  zasr = 'crystal'
/
