&INPUT
  fildyn = 'bn.dyn'
  flfrc = 'bn.frc'
  zasr = 'crystal'
/
