&INPUT
  fildyn = 'bn.dyn'
  flfrc = 'bn.frc'
  zasr = 'crystal'
  loto_2d = .true.
  write_lr = .true.
/
