KI Si
&control
  prefix='Si'
  outdir='./out'
  kc_iverbosity = 2
  kc_at_ks=.false.
  homo_only = .false.
  read_unitary_matrix = .true.
/
&wannier
  seedname = 'Si'
  check_ks = .true. 
  num_wann_occ = 32
  num_wann_emp = 32
  have_empty = .true.
  has_disentangle = .true.
/
&ham
  mp1 = 1
  mp2 = 1
  mp3 = 1
  do_bands = .false.
  use_ws_distance = .true.
  write_hr = .false.
  l_alpha_corr = .true.
/
K_POINTS crystal_b
 3
 0.00 0.00 0.00 10
 0.50 0.00 0.00 10
 0.00 0.00 0.00 1
