&CONTROL
  calculation='scf',
  restart_mode='from_scratch',
  pseudo_dir = '../../../pseudo/',
  outdir = './out'
  prefix = 'Si'
  wf_collect=.true.
  verbosity = "high"
/
&SYSTEM
  ecutwfc =   20
  ibrav   = 2
  celldm(1) = 20.5262036880000
  input_dft = 'PBE'
  nat = 16
  nspin = 1
  ntyp  = 2
  nbnd  = 160
  input_dft = 'lda'
/
&ELECTRONS
  diagonalization='david'
  mixing_mode = 'plain'
  mixing_beta = 0.7
  conv_thr =  0.5d-10
/
ATOMIC_SPECIES
Si2 1 Si_ONCV_PBE-1.0.upf
Si1 1 Si_ONCV_PBE-1.0.upf

ATOMIC_POSITIONS crystal
 Si1  0.00000000  0.00000000  0.00000000
 Si1  0.00000000  0.00000000  0.50000000
 Si1  0.00000000  0.50000000  0.00000000
 Si1  0.00000000  0.50000000  0.50000000
 Si1  0.50000000  0.00000000  0.00000000
 Si1  0.50000000  0.00000000  0.50000000
 Si1  0.50000000  0.50000000  0.00000000
 Si1  0.50000000  0.50000000  0.50000000
 Si2  0.12500000  0.12500000  0.12500000
 Si2  0.12500000  0.12500000  0.62500000
 Si2  0.12500000  0.62500000  0.12500000
 Si2  0.12500000  0.62500000  0.62500000
 Si2  0.62500000  0.12500000  0.12500000
 Si2  0.62500000  0.12500000  0.62500000
 Si2  0.62500000  0.62500000  0.12500000
 Si2  0.62500000  0.62500000  0.62500000

K_POINTS automatic
1 1 1 0 0 0
