 &input
        title='Cu',
        zed=29.0,
        rel=0,
        dx=0.006
        beta=0.7,
        iswitch=3,
        dft='LDA',
        prefix='./results//cu_LDA'
        nld=0
 /
8
1S  1  0  2.0  1
2S  2  0  2.0  1
2P  2  1  6.0  1
3S  3  0  2.0  1
3P  3  1  6.0  1
3D  3  2 10.0  1
4S  4  0  1.0  1
4P  4  1 -1.0  1
 &inputp
  pseudotype=3,
   nlcc=.true., rcore=0.50
   lloc=1
   file_pseudopw='./results//CuLDA.RRKJ3.PAW',
   zval=11.d0,
   lpaw=.true.
 /
4
3D  3  2 10.00  0.00  1.80  2.50
3D  3  2  0.00  0.02  1.80  2.50
4S  1  0  1.00  0.00  2.80  2.80
4P  4  1 -2.00  0.15  2.80  2.80
 &test
   nconf=1,
 / 
2
3D  3  2 10.00  0.00  1.80  2.50
4S  1  0  1.00  0.00  2.80  2.80
