 &input
        title='Cu',
        zed=29.0,
        dx=0.006,
        rel=0,
        beta=0.1,
        iswitch=2,
        dft='LDA',
        prefix='./results//cu_LDA'
 /
8
1S  1  0  2.0  1
2S  2  0  2.0  1
2P  2  1  6.0  1
3S  3  0  2.0  1
3P  3  1  6.0  1
3D  3  2 10.0  1
4S  4  0  1.0  1
4P  4  1 -1.0  1
 &test
  file_pseudo='./results//CuLDA.RRKJ3.PAW',
  nconf=2,
 / 
2
3D  3  2 10.00  0.00  1.80  2.50  1
4S  1  0  1.00  0.00  2.80  2.80  1
2
3D  3  2  9.70  0.00  1.80  2.50  1
4S  1  0  1.00  0.00  2.80  2.80  1
