    12
 Wannier centres, written by Wannier90 on16Sep2025 at 20:53:39 
X         -0.00506177       3.99983772       0.02903280
X          0.00215754       3.92716278       0.02902609
X          0.00505695       3.92948257       6.57330055
X         -0.00215872       4.00216544       6.57330430
Cr         0.00000000       3.96466430       0.00680040
Cr         0.00000000       3.96466430       6.59553293
I         -1.20958771       5.84849436       5.03824057
I          2.23623855       4.07028296       5.03824057
I         -1.02665084       1.97521558       5.03824057
I          1.20958771       2.08083423       1.56409277
I          4.63076145       3.85904564       1.56409277
I          4.46015084       0.00711657       1.56409277
