&input fildyn='si.dyn.xml', zasr='crystal', flfrc='si.fc' /
