 &control
    calculation='scf'
    gdir=3,
    nppstr=7,
    lelfield=.true.,
    nberrycyc=3
    tprnfor=.true. tstress=.true.
 /
 &system
    ibrav= 1, 
    celldm(1)=10.18, 
    nat=  8,
    ntyp= 1,
    ecutwfc = 20.0,
    nosym=.true.
 /
 &electrons
    conv_thr =  1.0d-8,
    mixing_beta = 0.5,
    startingwfc='file',
    startingpot='file',
    efield=0.001
 /
ATOMIC_SPECIES
 Si  28.086 Si.pbe-rrkj.UPF
ATOMIC_POSITIONS (alat)
 Si -0.123 -0.123 -0.123
 Si  0.377  0.377 -0.123
 Si  0.377 -0.123  0.377
 Si -0.123  0.377  0.377
 Si  0.123  0.123  0.123
 Si  0.623  0.623  0.123
 Si  0.623  0.123  0.623
 Si  0.123  0.623  0.623
K_POINTS
 63
  0.  0.  0. 1
  0.  0.  0.142857143 1
  0.  0.  0.285714286 1
  0.  0.  0.428571429 1
  0.  0.  0.571428571 1
  0.  0.  0.714285714 1
  0.  0.  0.857142857 1
  0.  0.333333333  0. 1
  0.  0.333333333  0.142857143 1
  0.  0.333333333  0.285714286 1
  0.  0.333333333  0.428571429 1
  0.  0.333333333  0.571428571 1
  0.  0.333333333  0.714285714 1
  0.  0.333333333  0.857142857 1
  0.  0.666666667  0. 1
  0.  0.666666667  0.142857143 1
  0.  0.666666667  0.285714286 1
  0.  0.666666667  0.428571429 1
  0.  0.666666667  0.571428571 1
  0.  0.666666667  0.714285714 1
  0.  0.666666667  0.857142857 1
  0.333333333  0.  0. 1
  0.333333333  0.  0.142857143 1
  0.333333333  0.  0.285714286 1
  0.333333333  0.  0.428571429 1
  0.333333333  0.  0.571428571 1
  0.333333333  0.  0.714285714 1
  0.333333333  0.  0.857142857 1
  0.333333333  0.333333333  0. 1
  0.333333333  0.333333333  0.142857143 1
  0.333333333  0.333333333  0.285714286 1
  0.333333333  0.333333333  0.428571429 1
  0.333333333  0.333333333  0.571428571 1
  0.333333333  0.333333333  0.714285714 1
  0.333333333  0.333333333  0.857142857 1
  0.333333333  0.666666667  0. 1
  0.333333333  0.666666667  0.142857143 1
  0.333333333  0.666666667  0.285714286 1
  0.333333333  0.666666667  0.428571429 1
  0.333333333  0.666666667  0.571428571 1
  0.333333333  0.666666667  0.714285714 1
  0.333333333  0.666666667  0.857142857 1
  0.666666667  0.  0. 1
  0.666666667  0.  0.142857143 1
  0.666666667  0.  0.285714286 1
  0.666666667  0.  0.428571429 1
  0.666666667  0.  0.571428571 1
  0.666666667  0.  0.714285714 1
  0.666666667  0.  0.857142857 1
  0.666666667  0.333333333  0. 1
  0.666666667  0.333333333  0.142857143 1
  0.666666667  0.333333333  0.285714286 1
  0.666666667  0.333333333  0.428571429 1
  0.666666667  0.333333333  0.571428571 1
  0.666666667  0.333333333  0.714285714 1
  0.666666667  0.333333333  0.857142857 1
  0.666666667  0.666666667  0. 1
  0.666666667  0.666666667  0.142857143 1
  0.666666667  0.666666667  0.285714286 1
  0.666666667  0.666666667  0.428571429 1
  0.666666667  0.666666667  0.571428571 1
  0.666666667  0.666666667  0.714285714 1
  0.666666667  0.666666667  0.857142857 1
