 &control
    calculation='scf',
 /
 &system    
    ibrav =-12,
    celldm(1) =10.0, 
    celldm(2) = 1.5,
    celldm(3) = 2.0,
    celldm(5) = 0.1,
    nat=2, ntyp=1,
    ecutwfc = 25.0
 /
 &electrons
 /
ATOMIC_SPECIES
 H 1.0008   H.pz-vbc.UPF
ATOMIC_POSITIONS {angstrom}
 H  0.00 0.00 -0.35 
 H  0.00 0.00  0.35
K_POINTS {gamma}
