 &control
    calculation='scf'
 /
 &system
    ibrav=2, celldm(1) =6.73, nat=1, ntyp=1,
    ecutwfc = 25.0, ecutrho=200.0,
    occupations='smearing', smearing='marzari-vanderbilt', degauss=0.02
 /
 &electrons
    diagonalization='cg'
 /
ATOMIC_SPECIES
 Cu 63.55 Cu.pz-d-rrkjus.UPF
ATOMIC_POSITIONS {alat}
 Cu 0.0 0.0 0.0
K_POINTS {automatic}
 4 4 4 0 0 0
