 &energy_current
vel_input_units="CP",
    delta_t=   0.300,
    file_output= 'current_hz',
    trajdir= 'traj',
    eta=   0.100,
    n_max=     5,
    first_step=1,
 /
 &CONTROL
    calculation='md',
    restart_mode='from_scratch',
    pseudo_dir='../pseudo',
    outdir='./save',
/
 &SYSTEM
    ibrav=1,
    celldm(1)=   29.322033581614075,
    nat=   375,
    ntyp=     2,
    ecutwfc=  70.000,
/
 &ELECTRONS
    conv_thr = 1.D-11,
    mixing_beta = 0.7,
/
 &IONS
    ion_velocities = 'from_input',
/
 ATOMIC_SPECIES
   H      1.00000000 H_HSCV_PBE-1.0.upf
   O     16.00000000 O_HSCV_PBE-1.0.upf
 ATOMIC_POSITIONS {bohr}
H     0.17978587304236E+02  0.18925510985725E+02  0.89241311923646E+01
H     0.20216493658160E+02  0.52910209075433E+02  0.19571412077901E+02
H     0.61077186212790E+00  -0.14977398558141E+02  0.11733763303981E+02
H     0.17522380079833E+02  0.16950611787693E+02  -0.25614074257586E+02
H     0.17919742720371E+02  0.51686758795810E+02  0.20858482825980E+02
H     0.27996597170315E+01  0.23749067083474E+02  -0.90814263403380E+01
H     0.36531339405534E+02  -0.83818364905214E+01  -0.19815811900947E+01
H     0.25219234725095E+02  -0.27117154759682E+02  -0.10310392163303E+02
H     0.37720906707468E+02  -0.97220085623332E+01  0.37839931012035E+00
H     -0.15900751785100E+02  -0.27119448256270E+02  0.17680263650838E+01
H     0.22673983239143E+02  0.25669997709971E+02  -0.12037808133804E+01
H     0.18271083964857E+02  0.11660191914991E+02  0.33573092323745E+02
H     0.29621754667925E+01  -0.13196172243224E+02  0.11437729436131E+02
H     0.15777364789930E+02  0.17076542799274E+02  -0.28060015373106E+02
H     0.72464491611814E+01  -0.16525241380081E+02  -0.45949780590892E+02
H     0.44247926980876E+01  0.24436359683206E+02  -0.11410085259625E+02
H     0.11670361799441E+02  0.27465602426160E+02  0.30460024765190E+01
H     0.93564364338313E+01  0.29131567374308E+02  0.26142687306424E+01
H     0.41273502046691E+02  0.22209397759231E+01  0.38188262225591E+02
H     0.14741527472169E+02  -0.10742321297740E+02  0.12688342247821E+02
H     -0.14302054177075E+02  -0.25222008980863E+02  0.38197452021453E+00
H     0.19519576459051E+02  0.25867938098872E+02  0.81849134393576E+01
H     0.10116049919116E+02  -0.16121268887663E+02  -0.45226692318556E+02
H     -0.17014689547392E+02  0.24089566143086E+02  -0.18872336574904E+02
H     -0.16836584176823E+02  0.27032052574420E+02  -0.18149768365782E+02
H     0.15892590113392E+02  -0.13471031373047E+02  0.11679250949370E+02
H     0.19876510666326E+02  0.25861790981898E+02  -0.21681767289919E+01
H     0.35925345851748E+02  -0.71458059679607E+01  0.22834853258799E+02
H     -0.19282883655882E+02  -0.68722252737223E+01  -0.22377997811497E+02
H     -0.20659014491720E+02  -0.44290771150845E+01  -0.21668766694555E+02
H     -0.38316969942731E+01  0.36809657586018E+01  0.29870918639945E+02
H     0.15495016925426E+02  -0.36960506803833E+01  -0.26817276026920E+02
H     -0.23651762661419E+02  0.30632328390448E+02  -0.67795748193117E+01
H     -0.22721691902681E+01  0.61792101186087E+01  0.30214930031754E+02
H     0.68620961816760E+01  0.23282217620943E+02  0.30652608569859E+02
H     -0.29560524736269E+01  -0.15677158574497E+02  0.53898712382272E+02
H     -0.24973132712940E+02  -0.38127008357714E+01  0.79593379959545E+01
H     -0.15923557094441E+02  -0.11113601801195E+02  -0.53131461938014E+01
H     0.13912682506650E+02  -0.62066750967318E+01  -0.26283784678860E+02
H     -0.38487790734930E+01  -0.13380459647050E+02  0.55844813926138E+02
H     0.39798051423941E+02  0.11250231382426E+01  0.35995787619321E+02
H     -0.52761427714305E+01  0.18114249627993E+02  -0.20864209099159E+02
H     -0.78061327614917E+01  0.18679666838533E+02  -0.22118486580113E+02
H     -0.43907881768091E+01  0.13829982925742E+02  0.39563427009901E+02
H     -0.26538357907460E+02  -0.59506629344280E+01  0.65319361836445E+01
H     0.53179637925779E+01  0.24600250945831E+02  0.32888527475148E+02
H     0.23689407904251E+02  -0.21929164271914E+02  0.23800326575936E+02
H     -0.13630648565288E+02  0.14389171112391E+02  0.34340911883904E+02
H     0.46631487316534E+02  0.43912529166272E+02  0.28325607940905E+02
H     0.84234760119265E+01  0.70540282482591E+01  0.46044503130397E+02
H     0.44819621857803E+02  0.45185014251994E+02  0.26320929746474E+02
H     -0.14242312454629E+02  0.11346276088612E+02  0.35405785352920E+02
H     0.57238952607785E+01  0.65432913057070E+01  0.27864285508906E+02
H     0.10831059512461E+01  0.10696309764031E+02  0.22103679553356E+02
H     -0.69313956747389E+00  0.93083632387633E+01  0.23766494444725E+02
H     0.57430097670520E+01  0.86395935037354E+01  0.46383699578752E+02
H     -0.22591679486366E+01  -0.44368463676429E+01  0.29389262557449E+02
H     0.12421072240908E+01  -0.38154544624031E+02  0.13879981377146E+02
H     -0.97363570128901E+01  0.32564565968826E+02  0.21317247299606E+02
H     0.16321382079398E+02  -0.12088439073504E+01  0.26158585439554E+02
H     -0.12189687629422E+02  0.31788219494864E+02  0.19880010824897E+02
H     0.75514970789365E+01  0.70574008436476E+01  0.21214110477972E+02
H     0.32963743392271E+01  0.62863087718900E+01  0.26416691731883E+02
H     0.17870901370425E+02  0.20159558756869E+00  0.24274533916434E+02
H     0.12847756236385E+02  -0.37394895307580E+01  0.27105980127437E+02
H     0.11160962595184E+02  0.16761093488498E+02  -0.17135376562616E+01
H     0.26522180871682E+01  0.31510223671290E+02  0.38968132966061E+01
H     -0.34938171234014E+02  -0.81010219823499E+01  -0.79539383328996E+01
H     0.49062762502276E+02  0.44220252033536E+02  0.20758474881280E+02
H     0.44702584860905E+01  0.29130792757887E+02  0.99640095346256E+01
H     0.27991230121989E+02  -0.69005165928375E+01  0.10923888355803E+02
H     0.14792435847639E+02  0.38356789440712E+02  0.14045733803681E+02
H     0.74903570062120E+01  0.29890387397753E+02  0.92382160362272E+01
H     0.10133238273042E+02  0.15484466708284E+02  0.86197652703015E+00
H     0.20392369490897E+00  0.31008461123149E+02  0.26574238128142E+00
H     0.48769069017812E+02  0.46925628189870E+02  0.19671889750640E+02
H     0.13486610537013E+02  0.72913417500095E+01  0.20152927310803E+01
H     -0.35111918389408E+02  -0.71065820116002E+01  -0.53555198567614E+01
H     0.15933593185681E+01  0.28449303247834E+02  -0.10399800916877E+00
H     -0.37472952392491E+01  0.39779675179078E+02  0.32511808091511E+02
H     0.34464230141188E+02  0.59180504499125E+02  -0.15282185905886E+02
H     0.17796489073726E+01  0.31683330878498E+02  0.12358212406496E+02
H     0.41210580486250E+01  0.30407349724598E+02  0.64610567589295E+01
H     0.70350306748562E+01  -0.67373441917116E+01  -0.14405544949362E+02
H     0.31171843755968E+02  -0.64444467563169E+01  0.10872779686896E+02
H     0.11201508802755E+02  0.27823433085216E+01  -0.46756562635116E+01
H     -0.61128312047962E+01  0.41698179975513E+02  0.31625168081682E+02
H     0.87480921498452E+00  0.38862789855585E+01  -0.58494734908468E+01
H     -0.58568850266198E+01  0.19139026729059E+02  -0.84491258643844E+00
H     0.85703604928459E+01  0.17792188001188E+01  -0.40874172042414E+01
H     -0.82307961236766E+00  0.51177717469480E+01  -0.36470217383798E+01
H     0.14873809123263E+02  0.23272525831362E+02  0.13337421629146E+02
H     0.19514048341959E+02  0.43961224768122E+02  -0.42835070100939E+01
H     0.22275735295723E+02  0.43125719920090E+02  -0.51135080858290E+01
H     -0.23220235267062E+02  0.33473621345688E+02  -0.59449045727106E+01
H     0.88346118880922E+01  0.31844100496998E+02  0.14649445289618E+02
H     0.33974677866036E+02  0.36142385098991E+02  0.10952418372793E+02
H     0.17395440650786E+02  0.21455789533041E+02  0.14122515894007E+02
H     -0.28344195644404E+01  0.72534798114976E+01  0.12635237521778E+02
H     0.32377364487009E+02  0.34913866274200E+02  0.85658119126781E+01
H     0.14474704484499E+01  0.28760539518679E+02  0.13198020910954E+02
H     0.42664508132096E+01  0.15122510421020E+02  0.49906794454256E+02
H     -0.21037255020950E+02  0.72717749158819E+01  0.87551885321147E+01
H     0.18930490781518E+01  0.15203590146236E+02  0.48396360845973E+02
H     0.96697423356296E+01  0.14730836734953E+02  -0.20420838964735E+02
H     -0.42121196636519E+01  0.50654828944959E+01  0.14311359386998E+02
H     0.10719605297772E+02  0.33783826061033E+02  0.13243800607905E+02
H     -0.16171328900530E+02  0.95971192930589E+01  0.99315881634132E+01
H     -0.43988950984886E+01  0.41726764922612E+02  0.36795943354945E+02
H     -0.15689423772823E+02  0.76690223872609E+01  0.75749636006410E+01
H     -0.19235412061247E+00  0.22179446057098E+02  0.30916633391477E+01
H     0.15757653269433E+02  0.40535908962322E+02  0.41650355284878E+02
H     -0.16583385177204E+02  0.21676373703439E+02  0.20823361517644E+02
H     -0.17033970817176E+02  0.31986403145026E+02  0.46091067163385E+02
H     -0.14673791053428E+02  0.34258788253552E+02  0.22944314785091E+02
H     0.85408369490919E+01  -0.11513095325340E+02  0.96882170907821E+01
H     -0.17037287205739E+02  0.29919019134006E+02  0.48180825895292E+02
H     -0.17010100116771E+02  0.22537895870120E+02  0.23534422692976E+02
H     -0.16359297629694E+02  0.33235711351544E+02  0.20784099037481E+02
H     0.25763809950271E+02  0.17514894414466E+02  0.43829932460793E+01
H     0.11215796981978E+01  0.20410892501487E+02  0.51126831224371E+01
H     0.26652797005656E+02  0.14963267346801E+02  0.29850951571677E+01
H     0.12849119192537E+02  0.89817148485179E+01  0.29305367113986E+02
H     0.12355630818763E+02  0.28068948515760E+02  0.25928589183255E+02
H     0.66975123139697E+01  -0.93576242542261E+01  0.97060663829577E+01
H     0.14991673978020E+01  -0.11680845545547E+02  0.14755091358942E+02
H     0.34412077816454E+02  0.48826665755283E+02  0.16071028741269E+02
H     0.16795218547313E+02  0.25195785600354E+02  0.89023027204286E+01
H     0.53180960728005E+02  -0.24581631092489E+02  -0.10141903288051E+02
H     0.47931078949742E+02  0.10295834903070E+02  -0.61033652603232E+01
H     0.57058292110560E+02  0.10486563933781E+02  -0.18634635979813E+02
H     0.47146363231080E+02  0.21196791974022E+02  0.71872979224218E+01
H     -0.76633573916421E+00  0.18060301097854E+02  0.21388249141097E+02
H     0.19089219702935E+02  -0.19912700038318E+01  0.41030580418600E+01
H     -0.77432030856614E+01  0.22027055536964E+02  0.12493530587134E+02
H     0.56361018616513E-01  0.31893527431116E+01  0.19500841491912E+02
H     0.14369227890321E+01  0.61336581352130E+00  0.19876245119839E+02
H     -0.66339332881791E+01  -0.31530420056925E+02  -0.96562973701922E+01
H     0.26669015913777E+02  -0.12678196863873E+01  0.14682879237611E+02
H     0.19449032142595E+02  -0.25923531933624E+01  0.13404760728071E+01
H     0.27823796027078E+02  -0.17058561717024E+00  0.17274872352488E+02
H     0.10203054350109E+02  0.11658483200599E+02  0.29618636349557E+01
H     0.84666329494162E+01  -0.19508584734262E+02  0.23592044857199E+02
H     0.10144761874367E+02  0.13915235613357E+02  0.47940641562023E+01
H     -0.74582530347284E+01  0.20278418380726E+02  0.14824716860400E+02
H     -0.35032187336587E+00  0.18804514812139E+02  0.18331890407588E+02
H     0.19971175594718E+02  0.18609117988134E+02  0.28076763002446E+02
H     0.27454096348519E+02  0.59493734131243E+01  0.51480860892612E+01
H     0.24107701862632E+02  0.21696859256432E+02  -0.21003322522481E+02
H     0.18344212818888E+02  0.29182030794242E+01  0.27454286840205E+02
H     0.51203734245826E+01  0.27269369946657E+02  0.20202094381661E+02
H     0.29193713740684E+02  0.74897712139415E+01  0.34768103981266E+01
H     0.32254337705011E+02  -0.17359634799926E+02  0.16315725282550E+02
H     0.57189003593058E+01  0.29295930021794E+02  0.18305066541089E+02
H     0.20442528168825E+02  0.47391752662265E+01  0.26374042787556E+02
H     0.32742104835904E+02  0.14973559686010E+02  0.45465484228015E+00
H     0.35492791363741E+02  -0.98123663457368E+01  0.23508369646692E+02
H     0.38148276225041E+01  0.17055679828045E+02  0.71428930840388E+01
H     0.24686671913621E+02  -0.23284393443774E+02  0.26591115306367E+02
H     0.24616478620958E+02  0.24833797215027E+02  -0.20883638498952E+02
H     0.28158849183818E+02  -0.18016793463042E+02  0.27547703602634E+02
H     0.15395267198367E+02  0.90627471234941E+01  -0.37303939857684E+01
H     0.30937871212394E+02  -0.18972907210134E+02  0.14457816800831E+02
H     0.12792616132880E+02  0.98812632697426E+01  -0.45940068780358E+01
H     0.21678919545228E+02  0.31874019210729E+02  -0.26735698275639E+02
H     0.30346533213595E+02  -0.19936716393203E+02  0.27747544743638E+02
H     0.23561601284791E+02  0.31994864351944E+02  -0.24392956531402E+02
H     0.22673537922722E+02  -0.12947356924248E+02  0.17847755480827E+02
H     0.17424157297919E+02  -0.23462245042088E+02  0.36027423846888E+02
H     0.48032083148200E+02  0.10047519315451E+02  0.46126258396852E+02
H     0.33401094382176E+02  0.73553407477233E+01  0.33153821211882E+02
H     0.27486134408811E+02  0.18814676020052E+02  0.25605478957701E+02
H     0.11892830971450E+02  0.43865346164674E+02  0.19187144860938E+02
H     0.30424883380361E+02  0.17772304843734E+02  0.25944357171254E+02
H     0.87954971672188E+01  -0.17740855088357E+02  0.18110925406407E+02
H     0.21989429894888E+02  0.27813514437252E+02  0.40974198696122E+02
H     0.32643482842420E+02  0.74466472519351E+01  0.30265316664723E+02
H     0.26775082253241E+02  -0.19855989916615E+01  0.30582501787468E+02
H     0.39070433166449E+02  0.59648463287335E+01  0.22330098755595E+02
H     0.71284186431850E+01  -0.15391571364846E+02  0.17934811789771E+02
H     0.27739985144903E+02  0.26304593685809E+02  0.36960352423356E+02
H     0.26012156990094E+02  0.26545628954721E+02  0.34525174397744E+02
H     0.14628322772798E+02  0.44384862815467E+02  0.19978994770339E+02
H     0.25452326753482E+02  -0.11570016897429E+02  0.18136856591269E+02
H     0.31294963776226E+01  0.15151955247857E+02  0.50915921830268E+01
H     0.40492417358451E+02  -0.91507136072018E+01  0.32440334067339E+02
H     0.22149914814122E+02  0.30003323110466E+02  0.39274040645938E+02
H     0.20533352616616E+02  0.21312698906461E+02  0.29099294121799E+02
H     0.42293835611421E+02  -0.99837200853067E+01  0.34468159506291E+02
H     0.31112100415777E+02  0.23830993517309E+02  0.27547810000838E+02
H     0.80272922472915E+00  0.36720347149386E+02  0.19596547272060E+02
H     -0.87143980307273E+01  -0.11013097632543E+01  -0.11662144542076E+02
H     0.17796058724195E+02  0.71892758623242E+02  0.91556340748714E+01
H     0.44081111398175E+02  0.39944972677390E+02  0.18957903813291E+02
H     0.49277682555211E+02  0.23331886752534E+01  0.15454342581889E+02
H     0.29199292632622E+02  0.21694978177477E+02  0.26926771254461E+02
H     0.34238861549977E+02  0.27574191652950E+02  0.26001065292824E+02
H     0.35859082850396E+02  0.14702506787010E+02  -0.54267596293065E+01
H     0.71461600198267E+01  -0.49476852017244E+01  -0.16967889102910E+02
H     0.20697841841900E+02  0.72571346842740E+01  0.74928769120435E+01
H     0.46566283522581E+02  0.13559301027801E+01  0.16047540004010E+02
H     0.30612878132724E+00  0.35739888406100E+02  0.16884169535416E+02
H     0.19752223625165E+02  0.73172902712143E+02  0.11181015917891E+02
H     0.33788838583231E+02  0.15964814673855E+02  -0.37626895013029E+01
H     0.19855961706463E+02  0.82047483814560E+01  0.48732537075703E+01
H     0.44315175399688E+02  0.37043063330808E+02  0.18711025086094E+02
H     0.47993004054131E+02  0.75467734611625E+01  -0.49207827297398E+01
H     0.34990660680089E+02  0.26362882153156E+02  0.28867578017545E+02
H     0.36580409155298E+02  0.57126887910054E+02  -0.14527638625765E+02
H     0.59310338174911E+02  0.86360543658332E+01  -0.18334734840507E+02
H     0.47309784302193E+02  0.39257137400868E+02  0.31375092525224E+02
H     0.94489596426085E+01  -0.17211958126198E+02  0.21830790205347E+02
H     0.10777981824130E+02  0.21346698908613E+02  0.16929300594224E+02
H     -0.34370274633437E+01  0.18219035690185E+02  0.54214991812876E+00
H     0.25335099371235E+02  0.38796147458135E+02  0.20051392453868E+02
H     0.22011877158256E+02  0.14177747598092E+02  0.13942254013884E+02
H     0.22845390795800E+02  0.38867340596844E+02  0.18353972179960E+02
H     0.64649886312487E+01  0.44338638893029E+01  0.34130084168495E+02
H     0.13714555980365E+02  0.22143025851037E+02  0.16635824574108E+02
H     0.83282894027266E+01  0.61615587705589E+01  0.32895153785526E+02
H     0.41438970655941E+02  0.16426819324874E+02  -0.20620966928305E+02
H     0.89448976503055E+01  0.91301591045799E+01  0.11152148927846E+02
H     0.57902317975133E+02  0.27304705313475E+02  -0.45022884949023E+01
H     0.62519467924092E+01  0.42525602404005E+02  0.34195287810508E+01
H     0.37925818161415E+01  0.40932581228041E+02  0.27612950142948E+01
H     0.57704283826244E+02  0.29881678453633E+02  -0.59366264140992E+01
H     0.28661245487421E+02  0.17012596292512E+02  0.82979819465911E+01
H     0.23503881453027E+02  0.16442070684453E+02  0.14190732111528E+02
H     0.33136283309786E+02  0.46992418175652E+02  -0.62508377903985E+00
H     0.27964319204387E+02  0.19174551599080E+02  0.10224062570517E+02
H     0.13013079808085E+02  -0.14095590184004E+02  -0.60387355462542E+01
H     0.40346427229346E+02  0.25516299516862E+02  0.48708842958607E+02
H     0.41398522676046E+02  0.26530017655519E+02  0.51240559122266E+02
H     0.21699229571393E+02  0.28121964979929E+02  0.53035143365598E+02
H     0.36406218005500E+02  0.48448109037176E+02  0.13565521968307E+02
H     0.22616380345521E+02  0.36917036128919E+02  0.40915182534718E+02
H     0.26872457817962E+02  0.31057037215079E+02  0.36881400292234E+02
H     -0.55953353809745E+01  0.25025181289453E+02  0.12774949593047E+02
H     0.16051038968815E+02  0.32777801119745E+02  0.97619813417419E+01
H     0.56727602675584E+02  0.23579441959591E+02  0.79896011984280E+02
H     0.10130440792467E+02  0.35832882737165E+02  0.29220333369174E+02
H     0.92995328276593E+01  0.32963106162740E+02  0.28494690285349E+02
H     0.22395406084096E+02  0.39731563222777E+02  0.39626920560689E+02
H     0.17946506970160E+02  0.30796400991095E+02  0.11457715455794E+02
H     0.26338802959469E+02  0.33401977503690E+02  0.38867548788347E+02
H     0.58267647372162E+02  0.24921419933311E+02  0.77433389568831E+02
H     0.24559648357920E+02  0.28739461738865E+02  0.53406391024621E+02
H     0.15580470008875E+02  0.43975173242427E+01  0.34702121980348E+02
H     0.49370322675264E+02  0.92928114040014E+01  0.43390661936554E+02
H     -0.66435466886099E+01  0.26159279908421E+02  0.15433004307067E+02
O     0.14411637438901E+02  -0.12350190969548E+02  0.11833942101404E+02
O     0.24100822532116E+02  -0.25966295608064E+02  -0.11284983775653E+02
O     0.15794176774091E+02  0.16865347288029E+02  -0.26206515566185E+02
O     0.36402494407525E+02  -0.85000086044581E+01  -0.10558565106697E+00
O     0.45348144525117E+01  0.24314777910492E+02  -0.95613894818175E+01
O     0.11119276695274E+02  0.29252476802857E+02  0.31440774850961E+01
O     -0.14631472349929E+02  -0.25694485384309E+02  0.21470522458415E+01
O     0.19532600334984E+02  0.51158862497342E+02  0.20188613887952E+02
O     0.21246542316821E+01  -0.14381980378644E+02  0.12608673707932E+02
O     0.90047726000478E+01  -0.16910496091096E+02  -0.46490441812468E+02
O     0.21039358975436E+02  0.24802274921967E+02  -0.11520220262798E+01
O     0.18093160769379E+02  0.24711179042726E+02  0.77233847464496E+01
O     0.39950689412071E+02  0.10496253163697E+01  0.37849438000658E+02
O     0.39015314472035E+01  0.24674426164967E+01  0.51717004351747E+01
O     -0.24994800643006E+01  0.48206968097565E+01  0.29007148004516E+02
O     -0.44108411439687E+01  -0.15029877681433E+02  0.54836424836781E+02
O     -0.20136854641624E+02  -0.60075252225723E+01  -0.20905485766939E+02
O     -0.25586195004765E+02  -0.56023517004083E+01  0.81297471944138E+01
O     -0.60466391916619E+01  0.19088367906130E+02  -0.22107272056127E+02
O     0.36491889881066E+02  -0.83885689958650E+01  0.24022686145911E+02
O     0.13725968630954E+02  -0.44260357078466E+01  -0.26918078606422E+02
O     0.67541902606677E+01  0.24893480909460E+02  0.31860579366096E+02
O     -0.23567573563771E+02  0.31666828502272E+02  -0.52667494276743E+01
O     -0.43919408243491E+01  0.12075234295778E+02  0.38726647208368E+02
O     -0.13358568480696E+02  0.12944084325023E+02  0.35570908475204E+02
O     -0.70543779914037E+00  0.10486833955403E+02  0.22339973086316E+02
O     0.74678159139823E+01  0.82024918863974E+01  0.47187669690893E+02
O     -0.35995998697110E+01  -0.35036878550588E+01  0.30516027539725E+02
O     -0.11346494516565E+02  0.31718566769531E+02  0.21495311681352E+02
O     0.46528755564789E+02  0.45314878057029E+02  0.27139530036875E+02
O     0.79839667788203E+01  0.61435487539786E+01  0.22794957735541E+02
O     0.13537843886246E+02  -0.27495884301324E+01  0.25746601565736E+02
O     0.20979759307129E+02  0.28526828661052E+02  0.39376284911434E+02
O     0.18118963317594E+02  -0.48786699645392E+00  0.25946220692232E+02
O     0.78096257114048E+00  0.29546323578973E+02  0.12130019456193E+01
O     -0.33759219823924E+02  -0.76463589840208E+01  -0.65895883783820E+01
O     0.60189351955610E+01  0.28707551064756E+02  0.91059267033920E+01
O     -0.15922143512029E+02  0.25413496821619E+02  -0.18051155816196E+02
O     0.36130071861818E+02  0.58832282975897E+02  -0.14369468986522E+02
O     0.48639385540979E+02  0.45159478120898E+02  0.19206873361833E+02
O     0.23078822984708E+01  0.29903829030147E+02  0.12153127745810E+02
O     0.10753721439247E+02  0.17009247117807E+02  0.88722225583074E-01
O     0.10081593224007E+02  0.33258166220628E+02  0.14895564850734E+02
O     0.20353651388040E+02  0.42926983163355E+02  -0.55664822723646E+01
O     -0.36163587125529E+01  0.55799053618349E+01  0.12576959907095E+02
O     0.15450572231846E+02  0.21682121829419E+02  0.14310578951921E+02
O     0.63666783386886E+00  0.54504269335768E+01  -0.49766096869703E+01
O     -0.47356955648019E+01  0.41514190374226E+02  0.32717782117079E+02
O     0.32308166805481E+02  0.35440400950457E+02  0.10395891307713E+02
O     -0.20822895788400E+02  0.73392463958479E+01  0.10571864585101E+02
O     0.36328557107976E+01  0.14808547344956E+02  0.48146550191594E+02
O     0.10456382160836E+02  0.17382440958407E+01  -0.33776920116597E+01
O     -0.41108129298231E+01  0.18582955496616E+02  -0.12849620927678E+01
O     0.69343042989703E+01  -0.11081470274788E+02  0.10588921616557E+02
O     0.26889845945138E+02  0.16924728963535E+02  0.31522460499013E+01
O     -0.15760994181705E+02  0.21697357817057E+02  0.22607259213551E+02
O     -0.16334268135354E+02  0.94756896586951E+01  0.80841118712016E+01
O     0.12531639811069E+02  0.89507736052485E+01  0.31224006409357E+02
O     -0.16030389101030E+02  0.31390584902079E+02  0.47666266383945E+02
O     0.16409111633296E+01  -0.10027905345739E+02  0.15496192596526E+02
O     -0.16379214324369E+02  0.34115610527216E+02  0.22407050466312E+02
O     0.69871965644368E+00  0.22138170852955E+02  0.46773572068100E+01
O     0.29799899722101E+02  -0.75373404971267E+01  0.40828242981350E+02
O     0.14200059824134E+02  0.39688837043979E+02  0.42289589852426E+02
O     0.40326472520073E+01  0.71280487548550E+01  0.27905240319811E+02
O     0.48590228692278E+02  0.10969376417282E+02  0.32154102001607E+02
O     0.57909603154366E+02  0.94775155451031E+01  -0.17292144096342E+02
O     -0.11540266586473E+01  0.17650813914200E+02  0.19524309105153E+02
O     0.47555441762075E+02  0.19344946756050E+02  0.71874900281327E+01
O     0.18213008245942E+02  -0.18422405014680E+01  0.24615845218189E+01
O     -0.31716419951278E+00  0.14426205720272E+01  0.19934909395114E+02
O     0.34753133549066E+02  -0.13157584504823E+02  -0.53951049039714E+01
O     0.28165662685104E+02  -0.12575342698364E+01  0.15839287691959E+02
O     -0.87897852755884E+01  0.21090809233525E+02  0.13673652493224E+02
O     0.24703271520868E+02  0.23118260470131E+02  -0.19874958346666E+02
O     0.32344995495681E+02  -0.18973570435694E+02  0.15757056827782E+02
O     0.27247612082927E+02  0.72860126363668E+01  0.37733148168600E+01
O     0.28480304671267E+02  -0.19744414468278E+02  0.28144813549356E+02
O     0.20356223683287E+02  0.19495326722844E+02  0.29612006288758E+02
O     0.32341798111705E+02  0.16129997436012E+02  -0.10848790801005E+01
O     0.48758113860930E+01  0.29154790784889E+02  0.19930341742294E+02
O     0.13649122892231E+02  0.93463214491456E+01  -0.30180364867623E+01
O     0.18735723997707E+02  0.47376362124111E+01  0.27181379996591E+02
O     0.24502349639409E+01  0.16115184220015E+02  0.64751256393856E+01
O     0.23386343514268E+02  0.31492420522161E+02  -0.26353188647825E+02
O     0.23436303649669E+02  -0.23145235268714E+02  0.25257920375778E+02
O     0.13135175474790E+02  -0.12837746277641E+02  -0.47033454149998E+01
O     0.32143324265320E+02  0.81726941765328E+01  0.32068690914881E+02
O     0.26429715016595E+02  0.27327164847847E+02  0.36150605647063E+02
O     0.49554891732396E+02  0.96286601641011E+01  0.45312428290901E+02
O     0.29326012381785E+02  0.18938204449042E+02  0.24920135417930E+02
O     0.89629574128538E+01  -0.15858664962063E+02  0.17926644268700E+02
O     0.13290173906857E+02  0.43244633533248E+02  0.20280592664272E+02
O     0.91017084615780E+01  0.12978486247744E+02  0.32858442632405E+02
O     0.41014285308968E+02  -0.87761480907978E+01  0.34092792867082E+02
O     0.23852745162428E+02  -0.11766684390629E+02  0.16972575199125E+02
O     0.73417910398798E+01  -0.49258514536256E+01  -0.15110219483611E+02
O     0.29616338386294E+02  0.23058079231542E+02  0.28245665758155E+02
O     0.17968193566671E+02  0.72376940692989E+02  0.10964064833533E+02
O     0.48378092289202E+02  0.88477921728120E+00  0.15905545839904E+02
O     -0.77771839515536E+01  -0.26636203926564E+01  -0.11062854321016E+02
O     0.76971477665355E+00  0.35161960456805E+02  0.18625990245108E+02
O     0.20168306135892E+02  0.65823674963410E+01  0.57558081403617E+01
O     0.90331912941274E+01  -0.17767224350323E+02  0.23503281042505E+02
O     0.47161557093219E+02  0.85837672499330E+01  -0.63468931694501E+01
O     0.44752499310022E+02  0.38562321244266E+02  0.17786113055268E+02
O     0.33896899285084E+02  0.26263751832050E+02  0.27123034479480E+02
O     0.42817273091240E+01  0.42831990149417E+02  0.28754155562631E+01
O     0.27482116125615E+02  0.17447284353343E+02  0.95911229894861E+01
O     0.39983868670782E+02  0.15811604258400E+02  -0.21618441834248E+02
O     0.40085523418087E+02  0.26711319303140E+02  0.50098905968821E+02
O     0.73645094952830E+01  0.59978748089086E+01  0.34370911844428E+02
O     0.12167075483802E+02  0.22454448181101E+02  0.17648738835145E+02
O     0.57233807290130E+02  0.29058834516178E+02  -0.43650632872780E+01
O     0.23569926012331E+02  0.38166755938789E+02  0.19950997819509E+02
O     0.22800116744041E+02  0.15429510797009E+02  0.12687790039978E+02
O     0.16654550604916E+02  0.32098475889467E+02  0.11522445656339E+02
O     0.15631910226774E+02  0.52085500820688E+01  0.36333816207945E+02
O     0.36187311579146E+02  0.49119610780133E+02  0.15406530065840E+02
O     -0.56974857389198E+01  0.26513466675724E+02  0.13817528095351E+02
O     0.58210051569667E+02  0.24553459975593E+02  0.79253909272606E+02
O     0.86366894280503E+01  0.34705840376036E+02  0.28910367201337E+02
O     0.21547239030896E+02  0.38143982924589E+02  0.40117412203170E+02
O     0.22992376581512E+02  0.29045545080822E+02  0.52260480384532E+02
O     0.26262734417318E+02  0.32855627992236E+02  0.36966882304261E+02    

 ATOMIC_VELOCITIES
 H   -8.991686164014912E-06 -7.180109171542315E-04 -1.232766613673531E-03
 H    6.213261329070191E-04 -1.527321328497312E-03 -5.060291123359008E-04
 H    2.197637928538291E-04 -5.813152933862515E-04  1.564451314482992E-04
 H    1.128417179834359E-03  1.514103532358285E-04  3.811854885254092E-04
 H    5.448308596750091E-04  1.601781699549088E-03 -2.195999856535431E-03
 H    6.973668414833891E-04  2.092480692026988E-03  4.549049545438092E-04
 H    6.078158818518691E-04 -5.642005298320715E-04  3.140718424423492E-04
 H   -8.743013852776609E-04 -6.823975603965915E-04 -6.665399693108908E-04
 H    1.564262747086359E-03  3.071729863047285E-04  3.143109390225692E-04
 H   -8.317418302274409E-04 -6.741208103967215E-04  8.218336868730919E-05
 H    1.378930218739759E-03 -1.777219606533615E-04  2.295601242995992E-04
 H    2.369148153016891E-04  3.543258020696685E-04  8.998890534925919E-05
 H   -1.976672948311909E-04 -8.905362218863815E-04 -2.983349522096808E-04
 H   -3.998854952278091E-05 -4.512401660443815E-04  1.997657873941992E-04
 H   -5.399251318968609E-04  6.946593977727085E-04  2.727443837520592E-04
 H    1.154671264569559E-03 -4.885819536578115E-04  5.977464902741092E-04
 H   -4.318706194463809E-04  1.094241011661785E-04  5.403949249208792E-04
 H    3.175188379098391E-04 -1.626997112650515E-04  1.918061112242969E-03
 H    6.472863882907691E-04 -5.342517608710115E-04  4.475580104571992E-04
 H    9.710750000248191E-04  7.639657626843749E-05  5.563677588837592E-04
 H   -8.776672104594309E-04  1.444435107690288E-03  9.970960743060692E-04
 H   -5.729391229883409E-04 -7.272033053485051E-05 -3.058354879175808E-04
 H   -6.152292768922609E-04  1.364196842238988E-03  5.223991964024492E-04
 H   -5.082907807152091E-05 -1.806379425181715E-04 -1.099099790776031E-03
 H    8.605063405784991E-04  9.000109833233785E-04 -1.736129543291131E-03
 H    1.676444336661459E-03  2.506573112703758E-05 -7.648909994359508E-04
 H    1.041697834159409E-05  1.241560753247935E-04  1.965931555906592E-04
 H    3.675228689718791E-04  2.018962510677685E-04 -9.912462791639908E-04
 H    1.543520679024509E-05 -5.528787625736315E-04 -2.186158864184608E-04
 H   -4.194654402699116E-07 -4.858849633009815E-04 -1.186976699578638E-04
 H   -1.052863138141709E-04 -1.983313446666315E-04  3.984030388953792E-04
 H   -1.333025135654491E-05  5.522451918826485E-04  5.352710891761092E-04
 H   -5.968072695346109E-04  3.640768513915585E-04 -2.191423438174931E-03