 &inputhp
   prefix = 'NiO2',
   outdir = '/scratch/timrov/QE_gitlab/tmp1/q-e/tempdir/',
   nq1 = 2, nq2 = 2, nq3 = 1,
   conv_thr_chi = 1.0d-8,
   iverbosity = 2
 /
