 &control
    calculation     = 'nscf'
    prefix          = 'sic'
    wf_collect      = .false.
    pseudo_dir      = '../pp/'
    outdir          = './'
 /
 &system
    ibrav           = 2
    celldm(1)       = 8.237
    nat             = 2
    ntyp            = 2
    ecutwfc         = 60
    occupations     = 'smearing'
    smearing        = 'mp'
    degauss         = 0.02
    nbnd            = 4
 /
 &electrons
    diagonalization = 'david'
    mixing_beta     = 0.7
    conv_thr        = 1.0d-10
 /
ATOMIC_SPECIES
  Si  28.0855     Si.pz-vbc.UPF
  C   12.01078    C.UPF
ATOMIC_POSITIONS alat
  Si  0.00  0.00  0.00
  C   0.25  0.25  0.25
K_POINTS crystal
216
  0.00000000  0.00000000  0.00000000  4.629630e-03 
  0.00000000  0.00000000  0.16666667  4.629630e-03 
  0.00000000  0.00000000  0.33333333  4.629630e-03 
  0.00000000  0.00000000  0.50000000  4.629630e-03 
  0.00000000  0.00000000  0.66666667  4.629630e-03 
  0.00000000  0.00000000  0.83333333  4.629630e-03 
  0.00000000  0.16666667  0.00000000  4.629630e-03 
  0.00000000  0.16666667  0.16666667  4.629630e-03 
  0.00000000  0.16666667  0.33333333  4.629630e-03 
  0.00000000  0.16666667  0.50000000  4.629630e-03 
  0.00000000  0.16666667  0.66666667  4.629630e-03 
  0.00000000  0.16666667  0.83333333  4.629630e-03 
  0.00000000  0.33333333  0.00000000  4.629630e-03 
  0.00000000  0.33333333  0.16666667  4.629630e-03 
  0.00000000  0.33333333  0.33333333  4.629630e-03 
  0.00000000  0.33333333  0.50000000  4.629630e-03 
  0.00000000  0.33333333  0.66666667  4.629630e-03 
  0.00000000  0.33333333  0.83333333  4.629630e-03 
  0.00000000  0.50000000  0.00000000  4.629630e-03 
  0.00000000  0.50000000  0.16666667  4.629630e-03 
  0.00000000  0.50000000  0.33333333  4.629630e-03 
  0.00000000  0.50000000  0.50000000  4.629630e-03 
  0.00000000  0.50000000  0.66666667  4.629630e-03 
  0.00000000  0.50000000  0.83333333  4.629630e-03 
  0.00000000  0.66666667  0.00000000  4.629630e-03 
  0.00000000  0.66666667  0.16666667  4.629630e-03 
  0.00000000  0.66666667  0.33333333  4.629630e-03 
  0.00000000  0.66666667  0.50000000  4.629630e-03 
  0.00000000  0.66666667  0.66666667  4.629630e-03 
  0.00000000  0.66666667  0.83333333  4.629630e-03 
  0.00000000  0.83333333  0.00000000  4.629630e-03 
  0.00000000  0.83333333  0.16666667  4.629630e-03 
  0.00000000  0.83333333  0.33333333  4.629630e-03 
  0.00000000  0.83333333  0.50000000  4.629630e-03 
  0.00000000  0.83333333  0.66666667  4.629630e-03 
  0.00000000  0.83333333  0.83333333  4.629630e-03 
  0.16666667  0.00000000  0.00000000  4.629630e-03 
  0.16666667  0.00000000  0.16666667  4.629630e-03 
  0.16666667  0.00000000  0.33333333  4.629630e-03 
  0.16666667  0.00000000  0.50000000  4.629630e-03 
  0.16666667  0.00000000  0.66666667  4.629630e-03 
  0.16666667  0.00000000  0.83333333  4.629630e-03 
  0.16666667  0.16666667  0.00000000  4.629630e-03 
  0.16666667  0.16666667  0.16666667  4.629630e-03 
  0.16666667  0.16666667  0.33333333  4.629630e-03 
  0.16666667  0.16666667  0.50000000  4.629630e-03 
  0.16666667  0.16666667  0.66666667  4.629630e-03 
  0.16666667  0.16666667  0.83333333  4.629630e-03 
  0.16666667  0.33333333  0.00000000  4.629630e-03 
  0.16666667  0.33333333  0.16666667  4.629630e-03 
  0.16666667  0.33333333  0.33333333  4.629630e-03 
  0.16666667  0.33333333  0.50000000  4.629630e-03 
  0.16666667  0.33333333  0.66666667  4.629630e-03 
  0.16666667  0.33333333  0.83333333  4.629630e-03 
  0.16666667  0.50000000  0.00000000  4.629630e-03 
  0.16666667  0.50000000  0.16666667  4.629630e-03 
  0.16666667  0.50000000  0.33333333  4.629630e-03 
  0.16666667  0.50000000  0.50000000  4.629630e-03 
  0.16666667  0.50000000  0.66666667  4.629630e-03 
  0.16666667  0.50000000  0.83333333  4.629630e-03 
  0.16666667  0.66666667  0.00000000  4.629630e-03 
  0.16666667  0.66666667  0.16666667  4.629630e-03 
  0.16666667  0.66666667  0.33333333  4.629630e-03 
  0.16666667  0.66666667  0.50000000  4.629630e-03 
  0.16666667  0.66666667  0.66666667  4.629630e-03 
  0.16666667  0.66666667  0.83333333  4.629630e-03 
  0.16666667  0.83333333  0.00000000  4.629630e-03 
  0.16666667  0.83333333  0.16666667  4.629630e-03 
  0.16666667  0.83333333  0.33333333  4.629630e-03 
  0.16666667  0.83333333  0.50000000  4.629630e-03 
  0.16666667  0.83333333  0.66666667  4.629630e-03 
  0.16666667  0.83333333  0.83333333  4.629630e-03 
  0.33333333  0.00000000  0.00000000  4.629630e-03 
  0.33333333  0.00000000  0.16666667  4.629630e-03 
  0.33333333  0.00000000  0.33333333  4.629630e-03 
  0.33333333  0.00000000  0.50000000  4.629630e-03 
  0.33333333  0.00000000  0.66666667  4.629630e-03 
  0.33333333  0.00000000  0.83333333  4.629630e-03 
  0.33333333  0.16666667  0.00000000  4.629630e-03 
  0.33333333  0.16666667  0.16666667  4.629630e-03 
  0.33333333  0.16666667  0.33333333  4.629630e-03 
  0.33333333  0.16666667  0.50000000  4.629630e-03 
  0.33333333  0.16666667  0.66666667  4.629630e-03 
  0.33333333  0.16666667  0.83333333  4.629630e-03 
  0.33333333  0.33333333  0.00000000  4.629630e-03 
  0.33333333  0.33333333  0.16666667  4.629630e-03 
  0.33333333  0.33333333  0.33333333  4.629630e-03 
  0.33333333  0.33333333  0.50000000  4.629630e-03 
  0.33333333  0.33333333  0.66666667  4.629630e-03 
  0.33333333  0.33333333  0.83333333  4.629630e-03 
  0.33333333  0.50000000  0.00000000  4.629630e-03 
  0.33333333  0.50000000  0.16666667  4.629630e-03 
  0.33333333  0.50000000  0.33333333  4.629630e-03 
  0.33333333  0.50000000  0.50000000  4.629630e-03 
  0.33333333  0.50000000  0.66666667  4.629630e-03 
  0.33333333  0.50000000  0.83333333  4.629630e-03 
  0.33333333  0.66666667  0.00000000  4.629630e-03 
  0.33333333  0.66666667  0.16666667  4.629630e-03 
  0.33333333  0.66666667  0.33333333  4.629630e-03 
  0.33333333  0.66666667  0.50000000  4.629630e-03 
  0.33333333  0.66666667  0.66666667  4.629630e-03 
  0.33333333  0.66666667  0.83333333  4.629630e-03 
  0.33333333  0.83333333  0.00000000  4.629630e-03 
  0.33333333  0.83333333  0.16666667  4.629630e-03 
  0.33333333  0.83333333  0.33333333  4.629630e-03 
  0.33333333  0.83333333  0.50000000  4.629630e-03 
  0.33333333  0.83333333  0.66666667  4.629630e-03 
  0.33333333  0.83333333  0.83333333  4.629630e-03 
  0.50000000  0.00000000  0.00000000  4.629630e-03 
  0.50000000  0.00000000  0.16666667  4.629630e-03 
  0.50000000  0.00000000  0.33333333  4.629630e-03 
  0.50000000  0.00000000  0.50000000  4.629630e-03 
  0.50000000  0.00000000  0.66666667  4.629630e-03 
  0.50000000  0.00000000  0.83333333  4.629630e-03 
  0.50000000  0.16666667  0.00000000  4.629630e-03 
  0.50000000  0.16666667  0.16666667  4.629630e-03 
  0.50000000  0.16666667  0.33333333  4.629630e-03 
  0.50000000  0.16666667  0.50000000  4.629630e-03 
  0.50000000  0.16666667  0.66666667  4.629630e-03 
  0.50000000  0.16666667  0.83333333  4.629630e-03 
  0.50000000  0.33333333  0.00000000  4.629630e-03 
  0.50000000  0.33333333  0.16666667  4.629630e-03 
  0.50000000  0.33333333  0.33333333  4.629630e-03 
  0.50000000  0.33333333  0.50000000  4.629630e-03 
  0.50000000  0.33333333  0.66666667  4.629630e-03 
  0.50000000  0.33333333  0.83333333  4.629630e-03 
  0.50000000  0.50000000  0.00000000  4.629630e-03 
  0.50000000  0.50000000  0.16666667  4.629630e-03 
  0.50000000  0.50000000  0.33333333  4.629630e-03 
  0.50000000  0.50000000  0.50000000  4.629630e-03 
  0.50000000  0.50000000  0.66666667  4.629630e-03 
  0.50000000  0.50000000  0.83333333  4.629630e-03 
  0.50000000  0.66666667  0.00000000  4.629630e-03 
  0.50000000  0.66666667  0.16666667  4.629630e-03 
  0.50000000  0.66666667  0.33333333  4.629630e-03 
  0.50000000  0.66666667  0.50000000  4.629630e-03 
  0.50000000  0.66666667  0.66666667  4.629630e-03 
  0.50000000  0.66666667  0.83333333  4.629630e-03 
  0.50000000  0.83333333  0.00000000  4.629630e-03 
  0.50000000  0.83333333  0.16666667  4.629630e-03 
  0.50000000  0.83333333  0.33333333  4.629630e-03 
  0.50000000  0.83333333  0.50000000  4.629630e-03 
  0.50000000  0.83333333  0.66666667  4.629630e-03 
  0.50000000  0.83333333  0.83333333  4.629630e-03 
  0.66666667  0.00000000  0.00000000  4.629630e-03 
  0.66666667  0.00000000  0.16666667  4.629630e-03 
  0.66666667  0.00000000  0.33333333  4.629630e-03 
  0.66666667  0.00000000  0.50000000  4.629630e-03 
  0.66666667  0.00000000  0.66666667  4.629630e-03 
  0.66666667  0.00000000  0.83333333  4.629630e-03 
  0.66666667  0.16666667  0.00000000  4.629630e-03 
  0.66666667  0.16666667  0.16666667  4.629630e-03 
  0.66666667  0.16666667  0.33333333  4.629630e-03 
  0.66666667  0.16666667  0.50000000  4.629630e-03 
  0.66666667  0.16666667  0.66666667  4.629630e-03 
  0.66666667  0.16666667  0.83333333  4.629630e-03 
  0.66666667  0.33333333  0.00000000  4.629630e-03 
  0.66666667  0.33333333  0.16666667  4.629630e-03 
  0.66666667  0.33333333  0.33333333  4.629630e-03 
  0.66666667  0.33333333  0.50000000  4.629630e-03 
  0.66666667  0.33333333  0.66666667  4.629630e-03 
  0.66666667  0.33333333  0.83333333  4.629630e-03 
  0.66666667  0.50000000  0.00000000  4.629630e-03 
  0.66666667  0.50000000  0.16666667  4.629630e-03 
  0.66666667  0.50000000  0.33333333  4.629630e-03 
  0.66666667  0.50000000  0.50000000  4.629630e-03 
  0.66666667  0.50000000  0.66666667  4.629630e-03 
  0.66666667  0.50000000  0.83333333  4.629630e-03 
  0.66666667  0.66666667  0.00000000  4.629630e-03 
  0.66666667  0.66666667  0.16666667  4.629630e-03 
  0.66666667  0.66666667  0.33333333  4.629630e-03 
  0.66666667  0.66666667  0.50000000  4.629630e-03 
  0.66666667  0.66666667  0.66666667  4.629630e-03 
  0.66666667  0.66666667  0.83333333  4.629630e-03 
  0.66666667  0.83333333  0.00000000  4.629630e-03 
  0.66666667  0.83333333  0.16666667  4.629630e-03 
  0.66666667  0.83333333  0.33333333  4.629630e-03 
  0.66666667  0.83333333  0.50000000  4.629630e-03 
  0.66666667  0.83333333  0.66666667  4.629630e-03 
  0.66666667  0.83333333  0.83333333  4.629630e-03 
  0.83333333  0.00000000  0.00000000  4.629630e-03 
  0.83333333  0.00000000  0.16666667  4.629630e-03 
  0.83333333  0.00000000  0.33333333  4.629630e-03 
  0.83333333  0.00000000  0.50000000  4.629630e-03 
  0.83333333  0.00000000  0.66666667  4.629630e-03 
  0.83333333  0.00000000  0.83333333  4.629630e-03 
  0.83333333  0.16666667  0.00000000  4.629630e-03 
  0.83333333  0.16666667  0.16666667  4.629630e-03 
  0.83333333  0.16666667  0.33333333  4.629630e-03 
  0.83333333  0.16666667  0.50000000  4.629630e-03 
  0.83333333  0.16666667  0.66666667  4.629630e-03 
  0.83333333  0.16666667  0.83333333  4.629630e-03 
  0.83333333  0.33333333  0.00000000  4.629630e-03 
  0.83333333  0.33333333  0.16666667  4.629630e-03 
  0.83333333  0.33333333  0.33333333  4.629630e-03 
  0.83333333  0.33333333  0.50000000  4.629630e-03 
  0.83333333  0.33333333  0.66666667  4.629630e-03 
  0.83333333  0.33333333  0.83333333  4.629630e-03 
  0.83333333  0.50000000  0.00000000  4.629630e-03 
  0.83333333  0.50000000  0.16666667  4.629630e-03 
  0.83333333  0.50000000  0.33333333  4.629630e-03 
  0.83333333  0.50000000  0.50000000  4.629630e-03 
  0.83333333  0.50000000  0.66666667  4.629630e-03 
  0.83333333  0.50000000  0.83333333  4.629630e-03 
  0.83333333  0.66666667  0.00000000  4.629630e-03 
  0.83333333  0.66666667  0.16666667  4.629630e-03 
  0.83333333  0.66666667  0.33333333  4.629630e-03 
  0.83333333  0.66666667  0.50000000  4.629630e-03 
  0.83333333  0.66666667  0.66666667  4.629630e-03 
  0.83333333  0.66666667  0.83333333  4.629630e-03 
  0.83333333  0.83333333  0.00000000  4.629630e-03 
  0.83333333  0.83333333  0.16666667  4.629630e-03 
  0.83333333  0.83333333  0.33333333  4.629630e-03 
  0.83333333  0.83333333  0.50000000  4.629630e-03 
  0.83333333  0.83333333  0.66666667  4.629630e-03 
  0.83333333  0.83333333  0.83333333  4.629630e-03 
