    16
 Wannier centres, written by merge.x
X          1.41300000      -1.41300000      -1.41300000
X          1.41300000      -1.41300000      -1.41300000
X          1.41300000      -1.41300000      -1.41300000
X          1.41300000      -1.41300000      -1.41300000
X          1.41300000      -1.41300000      -1.41300000
X         -0.00000000       0.00000000       0.00000000
X          0.00000000       0.00000000      -0.00000000
X         -0.00000000       0.00000000       0.00000000
X          0.00000000      -0.00000000       0.00000000
X          0.00000000      -0.00000000      -0.00000000
X          1.66133984      -1.16466017      -1.16466017
X          1.66133983      -1.66133983      -1.66133983
X          1.16466018      -1.16466017      -1.66133983
X          1.16466017      -1.66133983      -1.16466017
As         1.41300000       4.23900000       4.23900000
Ga         0.00000000       0.00000000       0.00000000
