 &control
    title = ' Water Molecule ',
    calculation = 'cp',
    restart_mode = 'from_scratch',
    ndr = 51,
    ndw = -1,
    nstep  = 11,
    iprint = 5,
    isave  = 5,
    tstress = .TRUE.,
    tprnfor = .TRUE.,
    dt    = 5.0d0,
    prefix = 'h2o'
    verbosity='medium',
 /
 &system
    ibrav = 14,
    celldm(1) = 12.0,
    celldm(2) = 1.0,
    celldm(3) = 1.0,
    celldm(4) = 0.0,
    celldm(5) = 0.0,
    celldm(6) = 0.0,
    nat  = 3,
    ntyp = 2,
    nbnd = 4,
    ecutwfc = 50.0,
 /
 &electrons
    emass = 400.d0,
    emass_cutoff = 2.5d0,
    electron_dynamics = 'cg',
 /
 &ions
    ion_dynamics = 'verlet',
    ion_radius(1) = 0.8d0,
    ion_radius(2) = 0.8d0,
    ion_velocities = 'from_input',
 /
ATOMIC_SPECIES
 O 16.0d0 O.blyp-mt.UPF
 H 1.00d0 H.blyp-vbc.UPF
ATOMIC_POSITIONS (bohr)
   O     0.0099    0.0099    0.0000  0 0 0
   H     1.8325   -0.2243   -0.0001  1 1 1
   H    -0.2243    1.8325    0.0002  1 1 1
ATOMIC_VELOCITIES
   O      -0.78062556418956E-18    -0.78062556418956E-18     0.00000000000000E+00
   H      -0.33729893187203E-03    -0.19288619720216E-03     0.13033633964857E-04
   H      -0.87957153903567E-04    -0.14042858176409E-02    -0.33371836862057E-04


