&inputpp
    prefix='ni+co',
    outdir='/home/pietro/espresso-svn/tempdir',
    filplot = 'ni+co.vpot'
    plot_num= 11
/
