&inputpp
    prefix='water',
    outdir='/home/degironc/tmp',
    filplot = 'water.vpot'
    plot_num= 11
/
