snapshot deisa
starting structure
   &CONTROL
      calculation = 'scf',
      restart_mode='from_scratch',
      prefix='ser',
      nstep=2000,
      tprnfor = .true.,
      outdir = './out',
      max_seconds = 21400
      !disk_io = 'none'
   /
   &SYSTEM
      ibrav=8,
      celldm(1)=19.197998
      celldm(2)=2.0207698
      celldm(3)=3.2144896
      nat=586
      ntyp=5
      ecutwfc=25.0,
      ecutrho=200.0,
      occupations='smearing',
      smearing='gaussian',
      degauss=0.004,
   /
   &ELECTRONS
      diagonalization = 'david'
      electron_maxstep = 5,
      mixing_mode = 'plain',
      mixing_beta = 0.3,
      conv_thr =  1.0d-8,
   /
ATOMIC_SPECIES
 Au  196.96654 Au.pbe-van_ak.UPF
 O  15.999   O.pbe-van_bm.UPF
 C   12.01   C.pbe-van_bm.UPF
 N   14.01   N.pbe-van_bm.UPF
 H   2.008   H.pbe-van_bm.UPF
ATOMIC_POSITIONS (angstrom)
N       2.427420    5.361463   19.019363
H       1.506816    5.272603   18.739481
C       3.072931    6.765422   18.854154
H       4.140863    6.662127   19.293635
C       3.361068    7.228558   17.348539
H       3.789167    6.343562   16.776181
H       4.116256    8.022482   17.314936
O       2.243203    7.794037   16.582291
H       1.958272    7.144472   15.829325
C       2.142876    7.774034   19.591562
O       0.925679    7.620361   19.670462
N       2.798214    8.861281   20.042315
H       3.811434    8.737665   20.103329
C       2.198683   10.064047   20.524924
H       1.115156   10.050183   20.324895
C       2.396770   10.265029   22.061972
H       1.691567   11.114199   22.326348
H       3.469025   10.509773   22.304864
O       2.003125    9.078402   22.813615
H       2.726733    8.477469   23.039573
C       2.847586   11.260993   19.792543
O       4.081690   11.306237   19.527796
N       1.965422   12.247590   19.626011
H       0.937770   11.850125   19.716924
C       2.186226   13.372038   18.724558
H       3.280882   13.542116   18.617717
C       1.663860   12.939066   17.369389
H       0.653539   12.511544   17.362245
H       2.364881   12.138156   17.006744
O       1.663928   13.975724   16.317014
H       2.589692   14.259468   16.256318
C       1.612344   14.597083   19.321840
O       0.393377   14.799176   19.486943
N       2.507257   15.597810   19.632202
H       3.495791   15.402438   19.391850
C       2.056292   16.954091   19.829480
H       1.131582   17.052094   19.318189
C       2.026060   17.331182   21.394415
H       1.444225   16.432640   21.751874
H       1.413363   18.270471   21.444740
O       3.286665   17.496391   22.018738
H       3.676113   16.556837   22.150027
C       2.992517   18.025568   19.184730
O       4.241893   18.024404   19.016029
N       2.317843   19.173406   18.798802
H       1.311004   19.178433   18.966709
C       2.897604   20.439145   18.354028
H       3.913470   20.531803   18.772290
C       3.215639   20.589378   16.848096
H       3.935161   19.803444   16.567686
H       3.632520   21.583331   16.741097
O      12.255581   20.510319   15.962942
H      11.991257   19.495622   15.872188
C       1.986467    0.995842   18.883258
O       0.715717    0.999129   18.904214
N       2.666565    2.064452   19.318295
H       3.743689    2.007274   19.391057
C       2.014688    3.218105   19.956853
H       0.985343    3.221614   19.570765
C       1.911911    2.965968   21.462467
H       1.995489    3.855658   22.096791
H       2.730601    2.302110   21.748328
O       0.635711    2.322034   21.798494
H       0.103621    3.031814   22.263800
C       3.005053    4.417750   19.642045
O       4.227876    4.263500   19.897426
N       7.179450    3.282130   19.624159
H       6.167664    3.318014   19.175787
C       7.763503    1.962448   19.767672
H       8.815719    2.065891   19.503877
C       7.854045    1.486913   21.226295
H       6.978733    0.891552   21.593015
H       7.917864    2.277107   21.935181
O       8.972249    0.587487   21.282018
H       9.797924    1.091152   21.066272
C       7.045833    0.871512   19.021744
O       5.783587    0.837174   18.901991
N       7.863094   20.453326   18.532837
H       8.851015   20.685476   18.761230
C       7.445521   19.274479   17.869249
H       6.399761   19.358724   17.944181
C       7.774722   19.448366   16.406128
H       8.829689   19.651200   16.276532
H       7.211942   20.322673   16.002313
O       7.494999   18.212473   15.684383
H       7.679628   18.262322   14.726308
C       8.121544   17.945133   18.515745
O       9.371778   17.734362   18.397368
N       7.222631   17.186293   19.114667
H       6.274663   17.543488   19.090008
C       7.369689   16.080737   20.050305
H       8.467838   15.868113   20.352994
C       6.663661   16.496670   21.362082
H       5.575144   16.634944   21.207986
H       7.202575   17.387592   21.683504
O       6.751134   15.544681   22.426257
H       7.715401   15.430749   22.723337
C       6.779551   14.806108   19.394443
O       5.567101   14.696727   19.169596
N       7.659043   13.830517   19.132289
H       8.666014   14.046898   19.339621
C       7.402604   12.535092   18.573266
H       6.274928   12.510432   18.549559
C       7.746940   12.508527   16.976951
H       7.245703   11.634380   16.541756
H       8.818259   12.302254   16.786976
O       7.311004   13.657318   16.339663
H       7.978719   14.344877   16.319343
C       7.952578   11.418582   19.490912
O       9.149788   11.570455   19.850858
N       7.207179   10.339801   19.633790
H       6.265562   10.365308   19.252677
C       7.844044    9.214983   20.266104
H       8.952987    9.174342   20.185245
C       7.396783    9.144972   21.771136
H       6.317686    8.838791   21.685303
H       7.625758   10.203379   22.096051
O       8.070479    8.228861   22.602526
H       8.688875    8.675645   23.248810
C       7.234908    7.864152   19.704171
O       5.934932    7.823670   19.491494
N       7.993483    6.780557   19.579761
H       9.029136    6.674880   19.596113
C       7.309998    5.634888   19.036878
H       6.277256    5.587263   19.417092
C       7.163787    5.804860   17.518087
H       6.623021    6.750499   17.364679
H       6.519937    4.978222   17.116760
O       8.415555    5.861270   16.840953
H       8.579759    6.786378   16.499739
C       8.051217    4.346480   19.359465
O       9.278696    4.243571   19.234314
Au      3.306187   11.937651    5.978801
Au      3.873872   11.119332   13.345685
Au      8.502393   10.324561    5.776443
Au      9.369926   10.077012   13.795856
Au      5.337914   13.948048    5.656479
Au      3.023342   13.767175   13.459194
Au     10.101830   15.216908    5.456767
Au      8.367559   12.615950   13.131422
Au      4.246005   16.861379    5.531911
Au      2.460721   16.373001   12.837040
Au      9.138993   18.082719    5.496297
Au      7.845314   15.385874   12.593143
Au      3.446181   19.428946    5.291823
Au      1.811378   19.327873   13.013415
Au     11.044295   20.075177    4.842430
Au      6.604764   20.703363   13.096813
Au      5.633936    0.786791    5.307010
Au      5.979700    3.007609   13.048341
Au     10.433519    2.141685    5.387339
Au      8.640085    2.295416   13.390030
Au      4.966273    3.414605    5.640762
Au      5.092053    5.798298   13.675469
Au      9.760829    4.898777    5.689817
Au     10.613968    4.177165   13.713146
Au      3.615343    8.944203    5.952765
Au      4.524257    8.563354   13.696953
Au      8.961031    7.521405    6.241008
Au      9.765803    7.175376   13.573814
Au      4.001700   13.363942    8.250558
Au      9.355373   11.235857    8.250822
Au      3.196070   16.307913    8.335014
Au      7.530559   17.560210    8.513241
Au      2.416370   18.214220   10.573010
Au      7.132724   19.647443   10.454686
Au      1.985525   -1.594527    7.953372
Au      6.757220   -0.149838    7.847536
Au      3.834216    4.331869    8.139960
Au     10.536549    2.960433   10.735467
Au      4.391031    6.159091    5.870266
Au     10.859876    8.446247    8.592723
Au      5.259713    9.997847    8.315435
Au      7.863041    9.078772    8.602672
Au      2.168626   12.850482   10.693768
Au      7.947127   11.342380   10.605289
Au     -1.616466   14.678629    7.842033
Au      3.930065   14.888819   10.515488
Au     -0.540724   18.229143   10.462094
Au      5.682038   16.990233   10.516864
Au      1.282752   20.803430   10.736525
Au      6.115328   22.699895    9.189529
Au      1.251652    1.636692   13.218154
Au      7.935538    3.619269   10.867867
Au      4.545265    6.803682   11.243636
Au     10.026423    5.737125   10.228039
Au      3.437783    9.665789   10.739171
Au      9.210590    8.528323   11.391382
Au      2.382440   10.880356    8.385180
Au      6.005577   11.120020    6.099135
Au      1.113447   13.985355    7.949032
Au      6.785425   12.583406    8.245848
Au      0.177986   16.754961    8.141812
Au      6.002614   15.541611    7.977449
Au     -0.666271   19.550445    7.694657
Au      4.706897   18.503150    8.142552
Au      1.111441    1.132529    7.796418
Au      4.044426    0.615623    7.981471
Au      0.636917    3.973770    8.114982
Au      7.762127    4.168513    8.264581
Au      3.440249    7.642163    8.804394
Au      6.149513    6.632281    8.706814
Au      0.529870   12.264101    5.935990
Au      1.057613   11.927703   13.132745
Au      8.014809   13.216566    5.445390
Au      5.796393   13.187726   13.062734
Au      2.568493   14.665241    5.604514
Au      0.336057   14.522205   12.972034
Au      7.148917   16.113175    5.435018
Au      4.974306   15.915369   12.840692
Au      1.648910   17.398493    5.493651
Au     -0.097544   17.204603   12.804073
Au      6.352452   18.709265    5.713577
Au      4.482590   18.828277   12.447460
Au      2.885465    1.431318    5.349397
Au     -0.794538   -0.245149   12.649924
Au      8.348984    0.298603    5.107892
Au      4.034054    1.068318   13.253450
Au      2.304677    4.167205    5.584775
Au      3.168199    3.549783   13.588101
Au      7.823670    2.994898    5.605942
Au      7.959510    5.138155   13.399661
Au      1.618969    6.803417    6.251803
Au      2.286844    6.208834   13.409610
Au      7.053347    5.477723    5.923449
Au      7.170719    7.730377   13.811467
Au      1.125168    9.662878    5.848517
Au      1.782702    9.214877   13.325788
Au      6.415848    8.259765    6.404576
Au      6.515704   10.501518   13.597203
Au      4.857887   11.855153   10.468074
Au      1.322974   15.645912   10.247724
Au      4.430699   20.509102   10.449023
Au      2.883480    2.383720    9.738709
Au      5.164059    4.035594   10.661805
Au      7.350110    6.624767   11.106579
Au      6.200314    9.134442   11.024027
Au      9.413477   13.839672   10.457702
Au      6.895124   14.150034   10.518981
Au      7.375405   18.074358   12.581607
Au     -1.416141    1.256155    9.186513
Au     12.577215    4.997061   10.396264
Au     11.678566    7.553155   11.142404
Au     10.784575   10.576925   10.612962
O       8.178642    8.722848   16.779568
H       7.814198    8.882607   15.913834
H       8.924147    9.327697   16.833703
O       9.511004   15.333486   16.787664
H      10.359010   14.946287   16.459522
H       9.757707   15.928916   17.530100
O       4.729975   14.395943   16.760729
H       4.860295   14.468864   17.770717
H       5.450788   13.879995   16.402953
O      15.400109   12.700619   31.311351
H      14.521834   12.305800   31.585835
H      15.422864   12.576262   30.339941
O      10.639210   -1.334881   33.509711
H      10.360492   -1.276174   32.526553
H      11.044348   -0.411982   33.517543
O       3.718257   -5.619489   -0.369993
H       4.414919   -6.340493   -0.733984
H       3.669700   -5.662141    0.586106
O       1.128253   17.984081   16.129262
H       0.207791   17.698960   16.321407
H       1.720434   17.244767   16.311723
O       0.775260    9.945723   16.555091
H       1.591029    9.367703   16.362365
H       0.709558   10.552742   15.843771
O       0.391134    4.348777   16.752686
H      -0.435163    4.846399   16.739986
H       0.792945    4.752354   15.974584
O       9.575564    1.539720   16.208163
H      10.412404    0.996948   16.210491
H       9.891324    2.458472   16.530431
O       5.094858    3.185984   16.562341
H       5.717863    2.539716   16.084653
H       4.310708    3.153710   15.970403
O       3.968584    9.605833    3.038746
H       3.550196   10.500512    3.272849
H       4.874297    9.644145    3.501808
O       6.780980   15.751536   26.443663
H       6.740657   14.948827   25.840560
H       6.638102   16.434068   25.712764
O       3.289698   11.255860   27.530011
H       4.060185   11.766939   27.851168
H       2.524666   11.886903   27.768193
O       7.338098    5.427398   25.915068
H       6.388648    5.785122   26.008256
H       7.524209    5.250007   24.913389
O       5.837405   10.278787   24.477612
H       6.292497    9.912703   25.287676
H       6.106861    9.792738   23.700939
O      -1.984419    9.349076   29.941259
H      -1.400160    9.890900   29.417585
H      -2.859307    9.336323   29.323127
O       8.721737    8.950765    2.089027
H       9.507512    8.372533    2.073485
H       8.379253    8.798997    1.206693
O      11.368310    6.218465   22.519604
H      10.722873    5.469574   22.451499
H      10.967564    7.052342   22.131982
O       8.018196   11.922305   31.449466
H       7.043134   11.800383   31.482063
H       8.328241   11.055354   31.122435
O       8.720202   14.598830   30.812760
H       8.534567   13.594240   30.929126
H       9.664942   14.731388   31.111851
O       1.000568    2.949516    2.615987
H       1.715079    3.304377    3.193901
H       0.590265    3.735757    2.133869
O       4.717174   -3.581459   30.341052
H       5.419566   -3.896727   31.009297
H       3.883392   -3.681638   30.784661
O       9.628958    0.375113   28.207675
H      10.262965    1.095576   28.113375
H       9.767496   -0.240855   27.491328
O       4.504561   -4.430804    2.372973
H       4.091454   -3.530833    2.205652
H       5.437029   -4.363086    2.070500
O       4.983710   16.770731   15.272842
H       5.857037   17.249107   15.503405
H       5.025890   15.928863   15.852556
O       7.420385    5.203466    2.828610
H       8.331522    5.527624    2.709593
H       7.440970    4.396725    2.208356
O       0.987196   17.823264   24.248425
H       2.004067   17.605825   24.581542
H       1.111129   18.760754   23.865883
O       3.000513    8.092439   -0.429382
H       3.399137    7.158019   -0.273413
H       2.327786    7.939719   -1.189188
O       7.728048    1.877700    2.191110
H       8.524195    1.765297    1.703500
H       7.883097    1.535058    3.060617
O      10.535861    0.242974   24.318859
H      10.024835    0.833501   23.702950
H       9.882275   -0.218361   24.857190
O       4.949292    6.912322    2.323034
H       5.829308    6.841465    2.660728
H       4.711051    7.831185    2.505902
O      11.332273   13.230431   29.075049
H      11.581727   13.655254   29.944222
H      11.441865   13.979322   28.441253
O      11.308089   14.793461   -1.357789
H      12.109316   14.865323   -0.743970
H      11.499863   15.638292   -1.858544
O       5.215262    6.529780   -3.754648
H       4.848574    5.622241   -3.687374
H       6.205606    6.374149   -3.959281
O      11.312217   17.316206   27.509637
H      11.637502   16.457193   27.299289
H      10.323661   17.060614   27.579700
O       5.596735   19.816568   27.674000
H       4.635728   19.413070   27.709507
H       6.206294   19.176158   28.151952
O       2.726410    0.285322   30.255061
H       2.842062   -0.208626   29.413722
H       2.609658    1.139032   29.845848
O      10.707103    9.283776   26.598024
H      11.664173    9.035856   26.399741
H      10.405895    9.458034   25.666990
O       6.858293   -4.592108   -0.620989
H       7.162887   -3.710515   -0.561727
H       7.639146   -5.099007   -1.053147
O       5.330506    5.233873   22.290682
H       4.880483    5.009227   21.429764
H       5.198862    4.423936   22.870395
O       8.380047    5.326220   -0.011882
H       8.622304    5.079528   -0.893383
H       8.114136    6.272811    0.000492
O       4.801646   15.301841   28.027649
H       5.604831   15.548543   27.359669
H       4.979259   15.874358   28.824219
O       9.771836    9.402047   24.110892
H      10.645348    9.245040   23.535465
H       9.523281   10.314771   23.890490
O       2.002628    1.054708   33.559083
H       1.512806    1.709655   34.184464
H       2.108019    1.546456   32.739547
O       6.043254   13.534231   25.139771
H       5.987373   13.226674   24.258797
H       6.380869   12.712049   25.614919
O       3.952862    3.174543   26.269299
H       3.426860    3.839005   25.709007
H       3.266869    2.505378   26.584583
O       6.166711    9.398819   27.512971
H       6.991857    8.884088   27.361891
H       5.423218    8.750471   27.534085
O       6.826383   19.961245   25.220682
H       6.500728   19.958123   26.210296
H       7.299626   20.806129   25.223328
O       2.014630    4.244063   31.666852
H       1.418173    4.471736   30.895576
H       1.490882    4.675628   32.426909
O      13.086230   -2.475352    1.762175
H      12.392955   -2.498763    1.032446
H      12.648918   -2.126847    2.590549
O       9.504866    3.911735   30.259294
H       9.073269    3.373720   30.949341
H       8.758144    4.389783   29.708474
O      11.513463   17.295092   -2.423297
H      11.600618   17.304406   -3.436592
H      10.847917   17.928464   -2.184834
O       9.345901   19.366450   30.682371
H       9.676107   19.942406   29.936972
H       8.528058   19.713219   31.144184
O       3.338292   17.730393   25.297201
H       4.135095   17.291070   24.979272
H       3.509894   18.345456   26.036408
O       4.303135    3.918498   29.534956
H       4.553309    3.594572   30.439161
H       4.815902    3.337641   28.903066
O       8.513717   18.902256   22.536643
H       8.654478   19.778467   22.032496
H       9.391622   18.477962   22.554265
O       8.841542   11.681953    1.585663
H       8.467097   11.726880    0.676727
H       8.681678   10.720809    1.886024
O       3.141470   11.581568   32.512318
H       2.880840   10.637358   32.702028
H       2.481311   12.087990   32.975295
O       3.759919   20.107351   21.573065
H       4.304506   20.219007   20.770092
H       3.556032   19.127103   21.669534
O       4.933343    6.668107   26.079642
H       4.069419    6.467072   25.691068
H       4.758190    6.991275   26.991732
O      -0.795925   15.805512   23.534036
H      -0.525419   15.155524   24.194767
H      -0.062769   16.536623   23.635850
O       8.977435   13.616889   21.908510
H       9.790198   14.109605   21.711180
H       9.002888   12.982776   21.150041
O       4.719418   21.158243   23.691255
H       5.213944   20.392365   24.021355
H       4.302214   20.876986   22.815731
O       5.322357    9.129150   31.060574
H       5.110532    9.003418   30.113876
H       4.444309    9.054377   31.501167
O       2.850264   19.506629   27.491804
H       2.111210   18.810179   27.334533
H       2.668237   20.326959   26.828798
O       5.386810    3.431819   31.978008
H       4.907207    3.113397   32.790030
H       5.210811    4.488559   32.137925
O      10.516599    4.905185   33.875108
H       9.609325    5.159502   33.498069
H      10.754041    5.749773   34.337820
O       6.164965   12.628756   22.504999
H       5.347810   13.121050   22.269144
H       6.801935   13.197093   22.014134
O       9.029929   15.474141   28.048604
H       8.077993   15.544998   27.797986
H       9.016012   15.170447   29.037371
O       5.539690   12.460161   34.697237
H       5.960068   13.365212   34.582353
H       5.195952   12.202557   33.799382
O       7.023872   14.748640   34.572563
H       7.837799   14.103308   34.703852
H       6.941374   14.878923   33.557548
O       6.109825   17.270433   24.538679
H       6.429765   16.842011   23.683317
H       6.357003   18.276821   24.495392
O       4.137487    5.611446   32.469402
H       3.403651    5.059260   32.016532
H       3.980972    5.349027   33.430017
O       9.731301   14.063249   25.672229
H       9.366221   14.572212   26.528543
H       9.402417   13.213232   25.726840
O       4.062645   15.110808   22.806047
H       4.999633   15.094563   23.240608
H       3.431755   14.897127   23.506837
O       8.043279    5.573874   28.556984
H       7.900507    5.542230   27.509637
H       8.908960    6.092732   28.683299
O      -0.230257   11.192835   28.520947
H       0.413089   10.873847   27.825873
H       0.204530   12.081799   28.887985
O       7.677088    5.646477   23.319825
H       7.932363    6.567510   22.987555
H       6.815747    5.364585   22.675447
O      11.564687   12.784387    1.568645
H      10.610317   12.423383    1.556722
H      11.453401   13.818135    1.670908
O       7.831820    8.106251   -0.345149
H       6.910999    8.217801   -0.412410
H       8.214944    8.501123   -1.191675
O       5.592343    3.296159   23.968120
H       5.312514    2.359277   23.758354
H       4.827370    3.495029   24.539049
O      13.351295    4.751364   35.082742
H      14.075685    4.023740   35.239855
H      13.786067    5.578954   35.456606
O       7.509392   11.899074   26.985487
H       8.425027   11.902726   27.418037
H       7.124257   11.024768   27.307174
O       3.560647   12.075766   24.890529
H       3.339657   11.943472   25.880830
H       4.227865   11.361325   24.662824
O       7.579984    2.136150   25.609363
H       6.793045    2.617749   25.248517
H       7.313544    2.123259   26.618450
O       4.948911   -0.146885   -0.785965
H       4.772478   -0.443161    0.137142
H       4.160861   -0.355643   -1.287514
O      -4.066159   22.603108   28.592968
H      -3.901929   22.379584   29.559775
H      -4.768213   21.994184   28.323829
O       4.803483    2.581675   34.937483
H       5.757393    2.269937   34.851810
H       4.371425    1.685974   34.894091
O       4.467524   -0.338988    2.103013
H       3.837623   -1.093015    1.908292
H       5.185014   -0.833957    2.594618
O       2.655426   21.491519   25.465162
H       3.370048   21.373936   24.777761
H       1.765594   21.462255   25.015785
O       3.261694   12.103707    3.349987
H       4.156855   12.291565    2.950543
H       2.529715   12.600393    2.897207
O       1.973089    5.499419   29.024883
H       2.797886    4.885674   28.987893
H       1.622520    5.778666   28.045059
O       7.184160   18.663015   -0.495073
H       7.223107   18.545167    0.501950
H       6.401084   19.277918   -0.678659
O       3.129521    8.634528   27.155089
H       3.116085    9.543337   27.554723
H       2.710238    8.028250   27.807723
O       7.553208   -2.462589   -4.123972
H       8.179172   -1.972608   -4.619482
H       7.774139   -2.166975   -3.170924
O       1.445701   -5.317859   34.813815
H       0.911153   -5.175436   35.619592
H       2.373031   -5.224491   35.097612
O      -2.218903   18.257083    2.016265
H      -1.347195   18.645076    1.776987
H      -2.315022   18.428113    2.947325
O       2.378010   14.943641   27.076876
H       2.271926   14.319530   26.285280
H       3.293201   15.236117   27.232878
O       0.983888    2.721319   27.923560
H       1.909525    2.876818   28.124223
H       0.488790    3.138348   28.648056
O       9.814646    4.002843   25.801877
H       8.960237    3.744922   26.130972
H      10.469503    3.524980   26.415405
O       4.347041    7.816685   23.126623
H       4.689429    7.697779   24.053688
H       4.371690    6.878349   22.828802
O      -3.074513    1.555352   31.263831
H      -3.677669    0.858066   31.526937
H      -3.300747    2.410078   31.680981
O       1.148452    7.691323    1.657054
H       1.806557    7.883150    2.332332
H       1.648408    7.912572    0.817409
O       1.576021    7.991896   -2.714615
H       1.476383    7.025248   -2.954766
H       0.604828    8.268338   -2.710910
O       2.078068   14.117226   23.966480
H       2.642064   13.268267   24.041041
H       1.373251   14.058328   24.643509
O       2.567763    5.618325   24.983611
H       1.956389    6.092997   25.672652
H       2.257040    6.045318   24.157618
O       7.902518    8.027139   26.217175
H       7.730324    7.073456   25.883318
H       8.711894    8.503557   25.914645
O      10.877763    6.471147   26.852770
H      10.660694    7.426364   26.822448
H      10.254551    5.827562   26.374447
O       8.845987   11.665813   23.867947
H       7.945752   11.722700   24.295628
H       8.874351   12.433649   23.295907
O       9.706747    4.197077   23.037139
H       8.817465    4.635120   23.029466
H       9.816921    4.227039   23.969814
O      -0.943713    2.045782   32.622228
H      -0.061078    1.651382   32.610004
H      -1.659510    1.512684   32.148509
O      -0.837788   18.935806   26.115626
H      -0.139797   18.581522   25.482096
H      -1.717761   18.914797   25.659370
O       5.346275   12.553507   28.441994
H       5.184220   13.510842   28.328062
H       6.242119   12.381419   28.118032
K_POINTS {automatic}
4 2 1   1 1 1
