&input
  fildyn = 'diam.dyn'
  zasr   = 'crystal'
  flfrc  = 'diam.ifc'
/

