&input
  prefix = 'diam'
  outdir = '.'

  ahc_dir = 'ahc_dir.1/'
  flvec = 'diam.modes1'
  ahc_nbnd = 8
  ahc_nbndskip = 0

  eta_eV = 0.1360570398
  efermi_eV = 15.0057940
  temp_kelvin = 300.0

  amass_amu(1) = 12.01078
/

