&input
  prefix = 'diam'
  outdir = '.'

  ahc_dir = 'ahc_dir.3/'
  flvec = 'diam.modes3'
  ahc_nbnd = 4
  ahc_nbndskip = 4

  eta_eV = 0.1360570398
  efermi_eV = 15.0057940
  temp_kelvin = 300.0

  amass_amu(1) = 12.01078
/

