&input
  prefix = 'diam'
  outdir = '.'

  ahc_dir = 'ahc_dir.2/'
  flvec = 'diam.modes2'
  ahc_nbnd = 4
  ahc_nbndskip = 0

  eta_eV = 0.1360570398
  efermi_eV = 15.0057940
  temp_kelvin = 0.0

  amass_amu(1) = 12.01078

  skip_upper = .true.
/

