&input
  verbosity = 'high'
  prefix = 'diam'
  outdir   = '.'
  fildyn = 'diam.dyn'
  fildvscf = 'dvscf'
  wpot_dir = 'wpot/'

  do_long_range = .false.
  do_charge_neutral = .false.
 /

