phonons of LiCoO2 at finite q
 &inputph
  prefix = 'LiCoO2',
  outdir='/scratch/timrov/WORK_DFPT_plus_U/A_PORTING_2018/A_Gitlab/A_my_Gitlab_08.11.2018/q-e/tempdir/',
  tr2_ph = 1.0d-14,
  amass(1) = 58.933194,
  amass(2) = 15.999,
  amass(3) =  6.94,
  fildyn='LiCoO2.dynq',
 /
0.000000000000000   0.000000000000000   0.250000000000000
