 &inputhp
   prefix = 'bn',
   outdir = './',
   nq1    = 2, 
   nq2    = 2,
   nq3    = 1,
   conv_thr_chi = 1.0d-5,
   iverbosity   = 2
 /
