---
 &inputph
  recover=.false.
  tr2_ph=1.0d-17,
  prefix='bn',
  amass(1)=10.811,
  amass(2)=14.0067,
  outdir='./',
  fildyn='bn.dyn.xml',
  fildvscf='dvscf'
  ldisp=.true.,
  epsil=.true.,
  nq1=2, nq2=2, nq3=2
 /
