 &control
    calculation = 'scf'
    tprnfor = .true.
    tstress = .true.
 /
 &system
    ibrav=  0, celldm(1)=8.19, nat=  4, ntyp= 3,
    ecutwfc = 30.0, ecutrho = 240.0, nbnd=20,
    starting_magnetization(1)= 0.0,
    starting_magnetization(2)= 0.5,
    starting_magnetization(3)=-0.5,
    occupations='smearing', smearing='gauss', degauss=0.01,
    nspin=2,
    starting_ns_eigenvalue(5,2,2) = 1.d0
    starting_ns_eigenvalue(5,1,3) = 1.d0
 /
 &electrons
    mixing_mode = 'plain'
    mixing_beta = 0.3
    conv_thr =  1.0d-8
    mixing_fixed_ns = 0
 /
CELL_PARAMETERS (alat)
0.50 0.50 1.00
0.50 1.00 0.50
1.00 0.50 0.50
ATOMIC_SPECIES
 O    1.  O.pz-rrkjus.UPF
 Fe1  1.  Fe.pz-nd-rrkjus.UPF
 Fe2  1.  Fe.pz-nd-rrkjus.UPF
ATOMIC_POSITIONS {crystal}
 O   0.25 0.25 0.25
 O   0.75 0.75 0.75
 Fe1 0.0  0.0  0.0
 Fe2 0.5  0.5  0.5
K_POINTS {automatic}
2 2 2 0 0 0
HUBBARD {ortho-atomic}
U Fe1-3d 4.3
U Fe2-3d 4.3
V Fe1-3d O-2p 3 2 0.8 
