&projwfc
 outdir = './out'
 prefix = 'Si_kcwann'
 degauss = 0.05
/

