 &inputpp
    outdir='/home/stefano/tmp/', 
    prefix='feo_af',
    first_band=9, last_band=20, 
 /
