 &control
    calculation='scf'
 /
 &system
    ibrav=2, celldm(1) =6.48, nat=1, ntyp=1,
    nspin=2,  
    ecutwfc = 24.0, ecutrho = 288.0,
    occupations='smearing', smearing='marzari-vanderbilt', degauss=0.02,
    nelec=10., nelup=6, neldw=4
 /
 &electrons
 /
ATOMIC_SPECIES
 Ni 58.69 NiUS.RRKJ3.UPF
ATOMIC_POSITIONS
 Ni 0.0 0.0 0.0
K_POINTS {automatic}
 4 4 4 1 1 1
