 &control
    calculation='scf',
    tprnfor=.true.
    tstress=.true.
 /
 &system
    ibrav=1, celldm(1)=8.00,
    nat=10, ntyp=2, nbnd=11, 
    ecutwfc=30.0,
 /
 &electrons
 /
ATOMIC_SPECIES
 H 1.007825035 H.tpss-mt.UPF
 C 12.00       C.tpss-mt.UPF
ATOMIC_POSITIONS  bohr
 H  -0.271695E+01  -0.245822E+01   0.236174E+01
 H  -0.291292E+01   0.249129E+01   0.952936E+00
 H  0.203629E+01  -0.270414E+01  -0.104887E+01
 H  0.310911E+01  -0.162987E+01   0.189331E+01
 H  0.244815E+01   0.263846E+01   0.332670E+00
 H  0.940835E+00   0.160187E+01  -0.258377E+01
 C -0.121505E+01  -0.130902E+01   0.131661E+01
 C -0.136126E+01   0.116614E+01   0.825189E+00
 C  0.154872E+01  -0.143358E+01   0.510627E+00
 C  0.109484E+01   0.137081E+01  -0.496954E+00
K_POINTS Gamma
