 conv_window = 3
 num_iter = 0
 iprint = 1
 kmesh_tol = 1e-4

Begin Projections
Mn:s;d
O:p
End Projections

 dis_num_iter = 2000
 dis_mix_ratio = 1.0

 exclude_bands : 1-10

 num_wann  = 18
 num_bands = 26

 dis_win_min =  5.0
 dis_win_max = 35.0 
 dis_froz_min=  5.0
 dis_froz_max= 18.0

 write_u_matrices = true

Begin Unit_Cell_Cart
Bohr
8.23859516  4.06306984  4.06306984
4.06306984  8.23859516  4.06306984
4.06306984  4.06306984  8.23859516
End Unit_Cell_Cart

Begin Atoms_frac
 Mn  0.00   0.00   0.00
 Mn  0.50   0.50  -0.50
 O   0.75  -0.25  -0.25
 O   1.25   0.25  -0.75
End Atoms_frac

mp_grid = 4 4 4

Begin Kpoints
  0.00000000  0.00000000  0.00000000
  0.00000000  0.00000000  0.25000000
  0.00000000  0.00000000  0.50000000
  0.00000000  0.00000000  0.75000000
  0.00000000  0.25000000  0.00000000
  0.00000000  0.25000000  0.25000000
  0.00000000  0.25000000  0.50000000
  0.00000000  0.25000000  0.75000000
  0.00000000  0.50000000  0.00000000
  0.00000000  0.50000000  0.25000000
  0.00000000  0.50000000  0.50000000
  0.00000000  0.50000000  0.75000000
  0.00000000  0.75000000  0.00000000
  0.00000000  0.75000000  0.25000000
  0.00000000  0.75000000  0.50000000
  0.00000000  0.75000000  0.75000000
  0.25000000  0.00000000  0.00000000
  0.25000000  0.00000000  0.25000000
  0.25000000  0.00000000  0.50000000
  0.25000000  0.00000000  0.75000000
  0.25000000  0.25000000  0.00000000
  0.25000000  0.25000000  0.25000000
  0.25000000  0.25000000  0.50000000
  0.25000000  0.25000000  0.75000000
  0.25000000  0.50000000  0.00000000
  0.25000000  0.50000000  0.25000000
  0.25000000  0.50000000  0.50000000
  0.25000000  0.50000000  0.75000000
  0.25000000  0.75000000  0.00000000
  0.25000000  0.75000000  0.25000000
  0.25000000  0.75000000  0.50000000
  0.25000000  0.75000000  0.75000000
  0.50000000  0.00000000  0.00000000
  0.50000000  0.00000000  0.25000000
  0.50000000  0.00000000  0.50000000
  0.50000000  0.00000000  0.75000000
  0.50000000  0.25000000  0.00000000
  0.50000000  0.25000000  0.25000000
  0.50000000  0.25000000  0.50000000
  0.50000000  0.25000000  0.75000000
  0.50000000  0.50000000  0.00000000
  0.50000000  0.50000000  0.25000000
  0.50000000  0.50000000  0.50000000
  0.50000000  0.50000000  0.75000000
  0.50000000  0.75000000  0.00000000
  0.50000000  0.75000000  0.25000000
  0.50000000  0.75000000  0.50000000
  0.50000000  0.75000000  0.75000000
  0.75000000  0.00000000  0.00000000
  0.75000000  0.00000000  0.25000000
  0.75000000  0.00000000  0.50000000
  0.75000000  0.00000000  0.75000000
  0.75000000  0.25000000  0.00000000
  0.75000000  0.25000000  0.25000000
  0.75000000  0.25000000  0.50000000
  0.75000000  0.25000000  0.75000000
  0.75000000  0.50000000  0.00000000
  0.75000000  0.50000000  0.25000000
  0.75000000  0.50000000  0.50000000
  0.75000000  0.50000000  0.75000000
  0.75000000  0.75000000  0.00000000
  0.75000000  0.75000000  0.25000000
  0.75000000  0.75000000  0.50000000
  0.75000000  0.75000000  0.75000000
End Kpoints

 bands_plot= true
 bands_num_points = 75
begin kpoint_path
Γ 0.0000000000  0.0000000000    0.0000000000   X 0.5000000000   0.0000000000    0.5000000000
X 0.5000000000  0.0000000000    0.5000000000   U 0.6250000000   0.2500000000    0.6250000000
U 0.6250000000  0.2500000000    0.6250000000   K 0.3750000000   0.3750000000    0.7500000000
K 0.3750000000  0.3750000000    0.7500000000   Γ 0.0000000000   0.0000000000    0.0000000000
Γ 0.0000000000  0.0000000000    0.0000000000   L 0.5000000000   0.5000000000    0.5000000000
L 0.5000000000  0.5000000000    0.5000000000   W 0.5000000000   0.2500000000    0.7500000000
W 0.5000000000  0.2500000000    0.7500000000   X 0.5000000000   0.0000000000    0.5000000000
end kpoint_path
