 &control
        calculation  = 'scf'
        restart_mode = 'from_scratch'
        pseudo_dir   = '/home/giannozz/O-sesame/pseudo//'
        outdir       = '/home/giannozz/tmp//'
 /
 &system
        ibrav=1
        celldm(1)=7.3699,
        nat=5
        ntyp=3
        nbnd=25
        ecutwfc=30.0
        occupations = 'fixed'
        degauss=0.00
 /
 &electrons
        conv_thr = 1e-12,
        mixing_beta=0.3,
 /
ATOMIC_SPECIES
  Pb   207.2      Pb.vdb.UPF
  Ti    47.867    Ti.vdb.UPF
  O     15.9994   O.vdb.UPF
ATOMIC_POSITIONS
  Pb    0.000    0.000    0.010 
  Ti    0.500    0.500    0.500 
  O     0.000    0.500    0.500 
  O     0.500    0.500    0.000 
  O     0.500    0.000    0.500 
K_POINTS {automatic}
  4 4 4 1 1 1
