 &control
    calculation='scf',
    restart_mode='from_scratch',
    prefix='SiC'
    pseudo_dir = '../../pseudo/',
 /
 &system
    ibrav = 2, celldm(1) =7.878, nat=  2, ntyp= 2,
    ecutwfc = 18.0
 /
 &electrons
    mixing_beta = 0.7
    conv_thr =  1.0d-14
 /
ATOMIC_SPECIES
 Si  28.086  Si.pz-vbc.UPF
 C   12.0107  C.pz-rrkjus.UPF
ATOMIC_POSITIONS (alat)
 Si 0.00 0.00 0.00
 C 0.25 0.25 0.25
K_POINTS automatic
  3 3 3 0 0 0
