 &control
    calculation='scf'
    pseudo_dir = '/home/giannozz/O-sesame/pseudo/',
    outdir='/home/giannozz/tmp/'
    title='Test Silane SiH4 gamma only'
    prefix='sih4'
    tprnfor=.true., tstress=.true.
 /
 &system
    ibrav=2, celldm(1) =12.0, nat=5, ntyp= 2,
    ecutwfc =16.0
 /
  &electrons
    mixing_mode='plain'
    mixing_beta = 0.7,
    conv_thr =  1.0d-8
 /
ATOMIC_SPECIES
 Si 28.086 Si.vbc.UPF
  H  1.008  H.vbc.UPF
ATOMIC_POSITIONS (alat)
 Si   0.000000000   0.000000000   0.000000000
  H   0.128530744   0.128530744   0.128530744
  H  -0.128530744  -0.128530744   0.128530744
  H  -0.128530744   0.128530744  -0.128530744
  H   0.128530744  -0.128530744  -0.128530744
K_POINTS (gamma)
