 &bands
    prefix  = 'silicon'
    outdir = '/home/paulatto/espresso.BASE/tempdir/'
    filband = 'sibands.dat'
    lsym=.false.,
 /
