    40
 Wannier centres, written by merge.x
X         -0.00000000       3.96466430       0.00680253
X          0.00000000       3.96466430       6.59553081
X          0.00000001       3.96466468       0.00679576
X         -0.00000053       3.96454009       0.00680141
X          0.00000052       3.96478921       0.00680136
X         -0.00000001       3.96466391       6.59553757
X          0.00000053       3.96478851       6.59553192
X         -0.00000052       3.96453939       6.59553197
X         -1.23468625       5.80442386       5.10908589
X          2.21062166       4.11405418       5.10908587
X         -0.97593539       1.97551485       5.10908587
X          1.23468640       2.12490466       1.49324744
X          4.65637821       3.81527432       1.49324746
X          4.40943540       0.00681747       1.49324746
X         -1.23814103       5.76821031       5.13847211
X         -1.39639106       5.80990265       5.21701297
X         -1.13436270       5.70098172       5.19380123
X          2.29621109       4.25134510       5.21698378
X          2.07084778       4.07889453       5.19380918
X          2.18101855       4.13515792       5.13849576
X         -0.94284427       1.99063479       5.13846809
X         -0.93651642       2.11411454       5.19379986
X         -0.89982690       1.83273295       5.21701797
X          1.23814121       2.16111816       1.46386121
X          1.39639118       2.11942589       1.38532043
X          1.13436285       2.22834685       1.40853209
X          4.57078879       3.67798338       1.38534959
X          4.79615215       3.85043395       1.40852412
X          4.68598127       3.79417057       1.46383755
X          4.37634430      -0.00830241       1.46386523
X          4.37001634      -0.13178230       1.40853342
X          4.33332689       0.14959933       1.38531544
Cr         0.00000000       3.96466430       0.00680040
Cr         0.00000000       3.96466430       6.59553293
I         -1.20958771       5.84849436       5.03824057
I          2.23623855       4.07028296       5.03824057
I         -1.02665084       1.97521558       5.03824057
I          1.20958771       2.08083423       1.56409277
I          4.63076145       3.85904564       1.56409277
I          4.46015084       0.00711657       1.56409277
