 &control
    calculation  ='nscf',
    prefix       ='pb',
    pseudo_dir   = '../../pp/',
    outdir       ='./',
    tprnfor      = .true.,
    tstress      = .true.,
 /
 &system    
    noncolin  = .true.,
    lspinorb  = .true.,
    ibrav = 2,
    celldm(1) = 9.269771512,
    nat=  1 ,
    ntyp = 1 ,
    ecutwfc = 90,
    occupations = 'smearing',
    degauss = 0.01,
    nbnd      = 26
 /
 &electrons
    mixing_beta = 0.7
    conv_thr    =  1.0d-12
 /
ATOMIC_SPECIES
 Pb 207.2   pb_s.UPF
ATOMIC_POSITIONS crystal
Pb  0.000000000   0.000000000   0.000000000
K_POINTS crystal
216
  0.0000000000000  0.0000000000000  0.0000000000000  4.629630e-03
  0.0000000000000  0.0000000000000  0.1666666666667  4.629630e-03
  0.0000000000000  0.0000000000000  0.3333333333333  4.629630e-03
  0.0000000000000  0.0000000000000  0.5000000000000  4.629630e-03
  0.0000000000000  0.0000000000000  0.6666666666667  4.629630e-03
  0.0000000000000  0.0000000000000  0.8333333333333  4.629630e-03
  0.0000000000000  0.1666666666667  0.0000000000000  4.629630e-03
  0.0000000000000  0.1666666666667  0.1666666666667  4.629630e-03
  0.0000000000000  0.1666666666667  0.3333333333333  4.629630e-03
  0.0000000000000  0.1666666666667  0.5000000000000  4.629630e-03
  0.0000000000000  0.1666666666667  0.6666666666667  4.629630e-03
  0.0000000000000  0.1666666666667  0.8333333333333  4.629630e-03
  0.0000000000000  0.3333333333333  0.0000000000000  4.629630e-03
  0.0000000000000  0.3333333333333  0.1666666666667  4.629630e-03
  0.0000000000000  0.3333333333333  0.3333333333333  4.629630e-03
  0.0000000000000  0.3333333333333  0.5000000000000  4.629630e-03
  0.0000000000000  0.3333333333333  0.6666666666667  4.629630e-03
  0.0000000000000  0.3333333333333  0.8333333333333  4.629630e-03
  0.0000000000000  0.5000000000000  0.0000000000000  4.629630e-03
  0.0000000000000  0.5000000000000  0.1666666666667  4.629630e-03
  0.0000000000000  0.5000000000000  0.3333333333333  4.629630e-03
  0.0000000000000  0.5000000000000  0.5000000000000  4.629630e-03
  0.0000000000000  0.5000000000000  0.6666666666667  4.629630e-03
  0.0000000000000  0.5000000000000  0.8333333333333  4.629630e-03
  0.0000000000000  0.6666666666667  0.0000000000000  4.629630e-03
  0.0000000000000  0.6666666666667  0.1666666666667  4.629630e-03
  0.0000000000000  0.6666666666667  0.3333333333333  4.629630e-03
  0.0000000000000  0.6666666666667  0.5000000000000  4.629630e-03
  0.0000000000000  0.6666666666667  0.6666666666667  4.629630e-03
  0.0000000000000  0.6666666666667  0.8333333333333  4.629630e-03
  0.0000000000000  0.8333333333333  0.0000000000000  4.629630e-03
  0.0000000000000  0.8333333333333  0.1666666666667  4.629630e-03
  0.0000000000000  0.8333333333333  0.3333333333333  4.629630e-03
  0.0000000000000  0.8333333333333  0.5000000000000  4.629630e-03
  0.0000000000000  0.8333333333333  0.6666666666667  4.629630e-03
  0.0000000000000  0.8333333333333  0.8333333333333  4.629630e-03
  0.1666666666667  0.0000000000000  0.0000000000000  4.629630e-03
  0.1666666666667  0.0000000000000  0.1666666666667  4.629630e-03
  0.1666666666667  0.0000000000000  0.3333333333333  4.629630e-03
  0.1666666666667  0.0000000000000  0.5000000000000  4.629630e-03
  0.1666666666667  0.0000000000000  0.6666666666667  4.629630e-03
  0.1666666666667  0.0000000000000  0.8333333333333  4.629630e-03
  0.1666666666667  0.1666666666667  0.0000000000000  4.629630e-03
  0.1666666666667  0.1666666666667  0.1666666666667  4.629630e-03
  0.1666666666667  0.1666666666667  0.3333333333333  4.629630e-03
  0.1666666666667  0.1666666666667  0.5000000000000  4.629630e-03
  0.1666666666667  0.1666666666667  0.6666666666667  4.629630e-03
  0.1666666666667  0.1666666666667  0.8333333333333  4.629630e-03
  0.1666666666667  0.3333333333333  0.0000000000000  4.629630e-03
  0.1666666666667  0.3333333333333  0.1666666666667  4.629630e-03
  0.1666666666667  0.3333333333333  0.3333333333333  4.629630e-03
  0.1666666666667  0.3333333333333  0.5000000000000  4.629630e-03
  0.1666666666667  0.3333333333333  0.6666666666667  4.629630e-03
  0.1666666666667  0.3333333333333  0.8333333333333  4.629630e-03
  0.1666666666667  0.5000000000000  0.0000000000000  4.629630e-03
  0.1666666666667  0.5000000000000  0.1666666666667  4.629630e-03
  0.1666666666667  0.5000000000000  0.3333333333333  4.629630e-03
  0.1666666666667  0.5000000000000  0.5000000000000  4.629630e-03
  0.1666666666667  0.5000000000000  0.6666666666667  4.629630e-03
  0.1666666666667  0.5000000000000  0.8333333333333  4.629630e-03
  0.1666666666667  0.6666666666667  0.0000000000000  4.629630e-03
  0.1666666666667  0.6666666666667  0.1666666666667  4.629630e-03
  0.1666666666667  0.6666666666667  0.3333333333333  4.629630e-03
  0.1666666666667  0.6666666666667  0.5000000000000  4.629630e-03
  0.1666666666667  0.6666666666667  0.6666666666667  4.629630e-03
  0.1666666666667  0.6666666666667  0.8333333333333  4.629630e-03
  0.1666666666667  0.8333333333333  0.0000000000000  4.629630e-03
  0.1666666666667  0.8333333333333  0.1666666666667  4.629630e-03
  0.1666666666667  0.8333333333333  0.3333333333333  4.629630e-03
  0.1666666666667  0.8333333333333  0.5000000000000  4.629630e-03
  0.1666666666667  0.8333333333333  0.6666666666667  4.629630e-03
  0.1666666666667  0.8333333333333  0.8333333333333  4.629630e-03
  0.3333333333333  0.0000000000000  0.0000000000000  4.629630e-03
  0.3333333333333  0.0000000000000  0.1666666666667  4.629630e-03
  0.3333333333333  0.0000000000000  0.3333333333333  4.629630e-03
  0.3333333333333  0.0000000000000  0.5000000000000  4.629630e-03
  0.3333333333333  0.0000000000000  0.6666666666667  4.629630e-03
  0.3333333333333  0.0000000000000  0.8333333333333  4.629630e-03
  0.3333333333333  0.1666666666667  0.0000000000000  4.629630e-03
  0.3333333333333  0.1666666666667  0.1666666666667  4.629630e-03
  0.3333333333333  0.1666666666667  0.3333333333333  4.629630e-03
  0.3333333333333  0.1666666666667  0.5000000000000  4.629630e-03
  0.3333333333333  0.1666666666667  0.6666666666667  4.629630e-03
  0.3333333333333  0.1666666666667  0.8333333333333  4.629630e-03
  0.3333333333333  0.3333333333333  0.0000000000000  4.629630e-03
  0.3333333333333  0.3333333333333  0.1666666666667  4.629630e-03
  0.3333333333333  0.3333333333333  0.3333333333333  4.629630e-03
  0.3333333333333  0.3333333333333  0.5000000000000  4.629630e-03
  0.3333333333333  0.3333333333333  0.6666666666667  4.629630e-03
  0.3333333333333  0.3333333333333  0.8333333333333  4.629630e-03
  0.3333333333333  0.5000000000000  0.0000000000000  4.629630e-03
  0.3333333333333  0.5000000000000  0.1666666666667  4.629630e-03
  0.3333333333333  0.5000000000000  0.3333333333333  4.629630e-03
  0.3333333333333  0.5000000000000  0.5000000000000  4.629630e-03
  0.3333333333333  0.5000000000000  0.6666666666667  4.629630e-03
  0.3333333333333  0.5000000000000  0.8333333333333  4.629630e-03
  0.3333333333333  0.6666666666667  0.0000000000000  4.629630e-03
  0.3333333333333  0.6666666666667  0.1666666666667  4.629630e-03
  0.3333333333333  0.6666666666667  0.3333333333333  4.629630e-03
  0.3333333333333  0.6666666666667  0.5000000000000  4.629630e-03
  0.3333333333333  0.6666666666667  0.6666666666667  4.629630e-03
  0.3333333333333  0.6666666666667  0.8333333333333  4.629630e-03
  0.3333333333333  0.8333333333333  0.0000000000000  4.629630e-03
  0.3333333333333  0.8333333333333  0.1666666666667  4.629630e-03
  0.3333333333333  0.8333333333333  0.3333333333333  4.629630e-03
  0.3333333333333  0.8333333333333  0.5000000000000  4.629630e-03
  0.3333333333333  0.8333333333333  0.6666666666667  4.629630e-03
  0.3333333333333  0.8333333333333  0.8333333333333  4.629630e-03
  0.5000000000000  0.0000000000000  0.0000000000000  4.629630e-03
  0.5000000000000  0.0000000000000  0.1666666666667  4.629630e-03
  0.5000000000000  0.0000000000000  0.3333333333333  4.629630e-03
  0.5000000000000  0.0000000000000  0.5000000000000  4.629630e-03
  0.5000000000000  0.0000000000000  0.6666666666667  4.629630e-03
  0.5000000000000  0.0000000000000  0.8333333333333  4.629630e-03
  0.5000000000000  0.1666666666667  0.0000000000000  4.629630e-03
  0.5000000000000  0.1666666666667  0.1666666666667  4.629630e-03
  0.5000000000000  0.1666666666667  0.3333333333333  4.629630e-03
  0.5000000000000  0.1666666666667  0.5000000000000  4.629630e-03
  0.5000000000000  0.1666666666667  0.6666666666667  4.629630e-03
  0.5000000000000  0.1666666666667  0.8333333333333  4.629630e-03
  0.5000000000000  0.3333333333333  0.0000000000000  4.629630e-03
  0.5000000000000  0.3333333333333  0.1666666666667  4.629630e-03
  0.5000000000000  0.3333333333333  0.3333333333333  4.629630e-03
  0.5000000000000  0.3333333333333  0.5000000000000  4.629630e-03
  0.5000000000000  0.3333333333333  0.6666666666667  4.629630e-03
  0.5000000000000  0.3333333333333  0.8333333333333  4.629630e-03
  0.5000000000000  0.5000000000000  0.0000000000000  4.629630e-03
  0.5000000000000  0.5000000000000  0.1666666666667  4.629630e-03
  0.5000000000000  0.5000000000000  0.3333333333333  4.629630e-03
  0.5000000000000  0.5000000000000  0.5000000000000  4.629630e-03
  0.5000000000000  0.5000000000000  0.6666666666667  4.629630e-03
  0.5000000000000  0.5000000000000  0.8333333333333  4.629630e-03
  0.5000000000000  0.6666666666667  0.0000000000000  4.629630e-03
  0.5000000000000  0.6666666666667  0.1666666666667  4.629630e-03
  0.5000000000000  0.6666666666667  0.3333333333333  4.629630e-03
  0.5000000000000  0.6666666666667  0.5000000000000  4.629630e-03
  0.5000000000000  0.6666666666667  0.6666666666667  4.629630e-03
  0.5000000000000  0.6666666666667  0.8333333333333  4.629630e-03
  0.5000000000000  0.8333333333333  0.0000000000000  4.629630e-03
  0.5000000000000  0.8333333333333  0.1666666666667  4.629630e-03
  0.5000000000000  0.8333333333333  0.3333333333333  4.629630e-03
  0.5000000000000  0.8333333333333  0.5000000000000  4.629630e-03
  0.5000000000000  0.8333333333333  0.6666666666667  4.629630e-03
  0.5000000000000  0.8333333333333  0.8333333333333  4.629630e-03
  0.6666666666667  0.0000000000000  0.0000000000000  4.629630e-03
  0.6666666666667  0.0000000000000  0.1666666666667  4.629630e-03
  0.6666666666667  0.0000000000000  0.3333333333333  4.629630e-03
  0.6666666666667  0.0000000000000  0.5000000000000  4.629630e-03
  0.6666666666667  0.0000000000000  0.6666666666667  4.629630e-03
  0.6666666666667  0.0000000000000  0.8333333333333  4.629630e-03
  0.6666666666667  0.1666666666667  0.0000000000000  4.629630e-03
  0.6666666666667  0.1666666666667  0.1666666666667  4.629630e-03
  0.6666666666667  0.1666666666667  0.3333333333333  4.629630e-03
  0.6666666666667  0.1666666666667  0.5000000000000  4.629630e-03
  0.6666666666667  0.1666666666667  0.6666666666667  4.629630e-03
  0.6666666666667  0.1666666666667  0.8333333333333  4.629630e-03
  0.6666666666667  0.3333333333333  0.0000000000000  4.629630e-03
  0.6666666666667  0.3333333333333  0.1666666666667  4.629630e-03
  0.6666666666667  0.3333333333333  0.3333333333333  4.629630e-03
  0.6666666666667  0.3333333333333  0.5000000000000  4.629630e-03
  0.6666666666667  0.3333333333333  0.6666666666667  4.629630e-03
  0.6666666666667  0.3333333333333  0.8333333333333  4.629630e-03
  0.6666666666667  0.5000000000000  0.0000000000000  4.629630e-03
  0.6666666666667  0.5000000000000  0.1666666666667  4.629630e-03
  0.6666666666667  0.5000000000000  0.3333333333333  4.629630e-03
  0.6666666666667  0.5000000000000  0.5000000000000  4.629630e-03
  0.6666666666667  0.5000000000000  0.6666666666667  4.629630e-03
  0.6666666666667  0.5000000000000  0.8333333333333  4.629630e-03
  0.6666666666667  0.6666666666667  0.0000000000000  4.629630e-03
  0.6666666666667  0.6666666666667  0.1666666666667  4.629630e-03
  0.6666666666667  0.6666666666667  0.3333333333333  4.629630e-03
  0.6666666666667  0.6666666666667  0.5000000000000  4.629630e-03
  0.6666666666667  0.6666666666667  0.6666666666667  4.629630e-03
  0.6666666666667  0.6666666666667  0.8333333333333  4.629630e-03
  0.6666666666667  0.8333333333333  0.0000000000000  4.629630e-03
  0.6666666666667  0.8333333333333  0.1666666666667  4.629630e-03
  0.6666666666667  0.8333333333333  0.3333333333333  4.629630e-03
  0.6666666666667  0.8333333333333  0.5000000000000  4.629630e-03
  0.6666666666667  0.8333333333333  0.6666666666667  4.629630e-03
  0.6666666666667  0.8333333333333  0.8333333333333  4.629630e-03
  0.8333333333333  0.0000000000000  0.0000000000000  4.629630e-03
  0.8333333333333  0.0000000000000  0.1666666666667  4.629630e-03
  0.8333333333333  0.0000000000000  0.3333333333333  4.629630e-03
  0.8333333333333  0.0000000000000  0.5000000000000  4.629630e-03
  0.8333333333333  0.0000000000000  0.6666666666667  4.629630e-03
  0.8333333333333  0.0000000000000  0.8333333333333  4.629630e-03
  0.8333333333333  0.1666666666667  0.0000000000000  4.629630e-03
  0.8333333333333  0.1666666666667  0.1666666666667  4.629630e-03
  0.8333333333333  0.1666666666667  0.3333333333333  4.629630e-03
  0.8333333333333  0.1666666666667  0.5000000000000  4.629630e-03
  0.8333333333333  0.1666666666667  0.6666666666667  4.629630e-03
  0.8333333333333  0.1666666666667  0.8333333333333  4.629630e-03
  0.8333333333333  0.3333333333333  0.0000000000000  4.629630e-03
  0.8333333333333  0.3333333333333  0.1666666666667  4.629630e-03
  0.8333333333333  0.3333333333333  0.3333333333333  4.629630e-03
  0.8333333333333  0.3333333333333  0.5000000000000  4.629630e-03
  0.8333333333333  0.3333333333333  0.6666666666667  4.629630e-03
  0.8333333333333  0.3333333333333  0.8333333333333  4.629630e-03
  0.8333333333333  0.5000000000000  0.0000000000000  4.629630e-03
  0.8333333333333  0.5000000000000  0.1666666666667  4.629630e-03
  0.8333333333333  0.5000000000000  0.3333333333333  4.629630e-03
  0.8333333333333  0.5000000000000  0.5000000000000  4.629630e-03
  0.8333333333333  0.5000000000000  0.6666666666667  4.629630e-03
  0.8333333333333  0.5000000000000  0.8333333333333  4.629630e-03
  0.8333333333333  0.6666666666667  0.0000000000000  4.629630e-03
  0.8333333333333  0.6666666666667  0.1666666666667  4.629630e-03
  0.8333333333333  0.6666666666667  0.3333333333333  4.629630e-03
  0.8333333333333  0.6666666666667  0.5000000000000  4.629630e-03
  0.8333333333333  0.6666666666667  0.6666666666667  4.629630e-03
  0.8333333333333  0.6666666666667  0.8333333333333  4.629630e-03
  0.8333333333333  0.8333333333333  0.0000000000000  4.629630e-03
  0.8333333333333  0.8333333333333  0.1666666666667  4.629630e-03
  0.8333333333333  0.8333333333333  0.3333333333333  4.629630e-03
  0.8333333333333  0.8333333333333  0.5000000000000  4.629630e-03
  0.8333333333333  0.8333333333333  0.6666666666667  4.629630e-03
  0.8333333333333  0.8333333333333  0.8333333333333  4.629630e-03
