input_description -distribution {Quantum Espresso} -package CP -program cp.x {

    toc {}

    intro {
	Input data format: { } = optional, [ ] = it depends, | = or
	
	All quantities whose dimensions are not explicitly specified are in
	HARTREE ATOMIC UNITS. Charge is "number" charge (i.e. not multiplied 
        by e); potentials are in energy units (i.e. they are multiplied by e)

        BEWARE: TABS, DOS <CR><LF> CHARACTERS ARE POTENTIAL SOURCES OF TROUBLE
        Comment lines in namelists can be introduced by a "!", exactly as in
        fortran code. Comments lines in ``cards'' can be introduced by
        either a "!" or a "#" character in the first position of a line.
        Do not start any line in ``cards'' with a "/" character.

	Structure of the input data:
	===============================================================================

	&CONTROL
	  ...
	/

	&SYSTEM
	 ...
	/

	&ELECTRONS
	...
	/

	[ &IONS
	  ...
	 / ]

	[ &CELL
	  ...
	 / ]

	[ &WANNIER
	  ...
	 / ]

	ATOMIC_SPECIES
	 X  Mass_X  PseudoPot_X
	 Y  Mass_Y  PseudoPot_Y
	 Z  Mass_Z  PseudoPot_Z

	ATOMIC_POSITIONS { alat | bohr | crystal | angstrom }
	  X 0.0  0.0  0.0  {if_pos(1) if_pos(2) if_pos(3)}
	  Y 0.5  0.0  0.0
	  Z O.0  0.2  0.2

	[ CELL_PARAMETERS { alat | bohr | angstrom }
	   v1(1) v1(2) v1(3)
	   v2(1) v2(2) v2(3)
	   v3(1) v3(2) v3(3) ]

	[ OCCUPATIONS
	   f_inp1(1)  f_inp1(2)  f_inp1(3) ... f_inp1(10)
	   f_inp1(11) f_inp1(12) ... f_inp1(nbnd)
	 [ f_inp2(1)  f_inp2(2)  f_inp2(3) ... f_inp2(10)
	   f_inp2(11) f_inp2(12) ... f_inp2(nbnd) ] ]

	[ CONSTRAINTS
	   nconstr  { constr_tol }
	   constr_type(.)   constr(1,.)   constr(2,.) [ constr(3,.)   constr(4,.) ] { constr_target(.) } ]

	[ ATOMIC_FORCES
           label_1 Fx(1) Fy(1) Fz(1)
           .....
           label_n Fx(n) Fy(n) Fz(n) ]
    }


    #
    # namelist CONTROL
    #

    namelist CONTROL {

	var calculation -type CHARACTER {
	    default { 'cp' }
	    info {
	     a string describing the task to be performed:
		'cp', 
		'scf', 
		'nscf', 
		'relax', 
		'vc-relax',
		'vc-cp', 
		'cp-wf',
		'vc-cp-wf'
		
		(vc = variable-cell).
		(wf = Wannier functions).
	    }
	}
	
	var title -type CHARACTER {
	    default {'MD Simulation '}
	    info {
		reprinted on output.
	    }
	}
	
	var verbosity -type CHARACTER {
	    default {'low'}
	    info {
               In order of decreasing verbose output:
		'debug' | 'high' | 'medium' | 'low','default' | 'minimal'
	    }
	}

	var isave -type INTEGER {
            see { ndr }
            see { ndw }
            default { 100 }
	    info {
               Number of steps between successive savings of
               information needed to restart the run.
	    }
	}
	
	var restart_mode -type CHARACTER {
	    default { 'restart' }
	    info {
		'from_scratch'   : from scratch
		'restart'        : from previous interrupted run
                'reset_counters' : continue a previous simulation,
                                   performs  "nstep" new steps, resetting
                                   the counter and averages
	    }
	}
	

	var nstep -type INTEGER {
	    info {
                number of Car-Parrinello steps performed in this run
	    }
	    default {
		50
	    }
	}
	
	var iprint -type INTEGER {
	    default { 10 }
	    info {
		Number of steps between successive writings of relevant physical quantities
                to files named as "prefix.???" depending on "prefix" parameter. 
                In the standard output relevant quantities are written every 10*iprint steps.
	    }
	}
	
	var tstress -type LOGICAL {
            default { .false. }
	    info {
		Write stress tensor to standard output each "iprint" steps.
                It is set to .TRUE. automatically if
                calculation='vc-relax'
	    }
	}
	
	
	var tprnfor -type LOGICAL {
            default {.false.}
	    info {
		print forces. Set to .TRUE. when ions are moving.
	    }
	}
	
	var dt -type REAL { 
	    default { 1.D0 }
	    info {
		time step for molecular dynamics, in Hartree atomic units
		(1 a.u.=2.4189 * 10^-17 s : beware, PW code use
		 Rydberg atomic units, twice that much!!!)
	    }
	}
	
	var outdir -type CHARACTER { 
	    default { 
		value of the ESPRESSO_TMPDIR environment variable if set; 
		current directory ('./') otherwise 
	    }
	    info {
		input, temporary, trajectories and output files are found 
                in this directory.
	    }
	}

	var saverho -type LOGICAL { 
	    info {
               This flag controls the saving of charge density in CP codes:
               If  .TRUE.        save charge density to restart dir,
               If .FALSE. do not save charge density.
	    }
	}
	
	var prefix -type CHARACTER { 
	    default { 'cp' }
	    info {
		prepended to input/output filenames:
		  prefix.pos : atomic positions
		  prefix.vel : atomic velocities 
		  prefix.for : atomic forces 
		  prefix.cel : cell parameters 
		  prefix.str : stress tensors 
		  prefix.evp : energies 
		  prefix.hrs : Hirshfeld effective volumes (ts-vdw) 
		  prefix.eig : eigen values 
		  prefix.nos : Nose-Hoover variables 
		  prefix.spr : spread of Wannier orbitals
		  prefix.wfc : center of Wannier orbitals
		  prefix.ncg : number of Poisson CG steps (PBE0)
	    }
	}

	var ndr -type INTEGER { 
	    default { 50 }
	    info {
               Units for input and output restart file.
	    }
	}
       
	var ndw -type INTEGER { 
	    default { 50 }
	    info {
               Units for input and output restart file.
	    }
	}

	
        var tabps -type LOGICAL { 
	    default {.false.}
	    info {
               .true. to compute the volume and/or the surface of an isolated
               system for finite pressure/finite surface tension calculations
               (PRL 94, 145501 (2005); JCP 124, 074103 (2006)).
	    }
	}

	
	var max_seconds -type REAL { 
	    default { 1.D+7, or 150 days, i.e. no time limit }
	    info {
		jobs stops after max_seconds CPU time. Used to prevent
                a hard kill from the queuing system.
	    }	    
	}

	var etot_conv_thr -type REAL { 
	    default { 1.0D-4 }
	    info {
		convergence threshold on total energy (a.u) for ionic
		minimization: the convergence criterion is satisfied
		when the total energy changes less than etot_conv_thr
		between two consecutive scf steps.
		See also forc_conv_thr - both criteria must be satisfied
	    }
	}

	var forc_conv_thr -type REAL { 
	    default { 1.0D-3 }
	    info {
		convergence threshold on forces (a.u) for ionic
		minimization: the convergence criterion is satisfied
		when all components of all forces are smaller than
		forc_conv_thr.
		See also etot_conv_thr - both criteria must be satisfied
	    }
	}

	var ekin_conv_thr -type REAL { 
	    default { 1.0D-6 }
	    info {
               convergence criterion for electron minimization:
               convergence is achieved when "ekin < ekin_conv_thr".
               See also etot_conv_thr - both criteria must be satisfied.
	    }
	}

	var disk_io -type CHARACTER { 
	    default { 'default' }
	    info {
               'high': CP code will write Kohn-Sham wfc files and additional
                       information in data-file.xml in order to restart
                       with a PW calculation or to use postprocessing tools.
                       If disk_io is not set to 'high', the data file
                       written by CP will not be readable by PW or PostProc.
	    }
	}

	var memory -type CHARACTER { 
	    default { 'default' }
	    info {
               'small': memory-saving tricks are implemented. Currently:
                        - the G-vectors are sorted only locally, not globally
                        - they are not collected and written to file
                        For large systems, the memory and time gain is sizable
                        but the resulting data files are not portable - use it
                        only if you do not need to re-read the data file
	    }
	}

	var pseudo_dir -type CHARACTER { 
	    default { 
		value of the $ESPRESSO_PSEUDO environment variable if set; 
		'$HOME/espresso/pseudo/' otherwise 
	    }
	    info {
		directory containing pseudopotential files
	    }
	}

	var tefield -type LOGICAL { 
	    default { .FALSE. }
	    info {
                If .TRUE. a homogeneous finite electric field described
                through the modern theory of the polarization is applied.
	    }
	}

    }

    #
    # NAMELIST &SYSTEM
    #

    namelist SYSTEM {

	var ibrav -type INTEGER {
	    status { REQUIRED }
	    info {
                Bravais-lattice index. If ibrav /= 0, specify EITHER
                [ celldm(1)-celldm(6) ] OR [ A,B,C,cosAB,cosAC,cosBC ]
                but NOT both. The lattice parameter "alat" is set to
                alat = celldm(1) (in a.u.) or alat = A (in Angstrom);
                see below for the other parameters.
                For ibrav=0 specify the lattice vectors in CELL_PARAMETER,
                optionally the lattice parameter alat = celldm(1) (in a.u.)
                or = A (in Angstrom), or else it is taken from CELL_PARAMETERS 

              ibrav      structure                   celldm(2)-celldm(6)
                                                   or: b,c,cosbc,cosac,cosab
                0          free
                    crystal axis provided in input: see card CELL_PARAMETERS

                1          cubic P (sc)
                    v1 = a(1,0,0),  v2 = a(0,1,0),  v3 = a(0,0,1)

                2          cubic F (fcc)
                    v1 = (a/2)(-1,0,1),  v2 = (a/2)(0,1,1), v3 = (a/2)(-1,1,0)

                3          cubic I (bcc)
                    v1 = (a/2)(1,1,1),  v2 = (a/2)(-1,1,1),  v3 = (a/2)(-1,-1,1)

                4          Hexagonal and Trigonal P        celldm(3)=c/a
                    v1 = a(1,0,0),  v2 = a(-1/2,sqrt(3)/2,0),  v3 = a(0,0,c/a)

                5          Trigonal R, 3fold axis c        celldm(4)=cos(gamma)
                    The crystallographic vectors form a three-fold star around
                    the z-axis, the primitive cell is a simple rhombohedron:
                    v1 = a(tx,-ty,tz),   v2 = a(0,2ty,tz),   v3 = a(-tx,-ty,tz)
                    where c=cos(gamma) is the cosine of the angle gamma between
                    any pair of crystallographic vectors, tx, ty, tz are:
                      tx=sqrt((1-c)/2), ty=sqrt((1-c)/6), tz=sqrt((1+2c)/3)
               -5          Trigonal R, 3fold axis <111>    celldm(4)=cos(gamma)
                    The crystallographic vectors form a three-fold star around
                    <111>. Defining a' = a/sqrt(3) :
                    v1 = a' (u,v,v),   v2 = a' (v,u,v),   v3 = a' (v,v,u)
                    where u and v are defined as
                      u = tz - 2*sqrt(2)*ty,  v = tz + sqrt(2)*ty
                    and tx, ty, tz as for case ibrav=5
                    Note: if you prefer x,y,z as axis in the cubic limit,  
                          set  u = tz + 2*sqrt(2)*ty,  v = tz - sqrt(2)*ty
                          See also the note in Modules/latgen.f90

                6          Tetragonal P (st)               celldm(3)=c/a
                    v1 = a(1,0,0),  v2 = a(0,1,0),  v3 = a(0,0,c/a)

                7          Tetragonal I (bct)              celldm(3)=c/a
                    v1=(a/2)(1,-1,c/a),  v2=(a/2)(1,1,c/a),  v3=(a/2)(-1,-1,c/a)

                8          Orthorhombic P                  celldm(2)=b/a
                                                           celldm(3)=c/a
                    v1 = (a,0,0),  v2 = (0,b,0), v3 = (0,0,c)

                9          Orthorhombic base-centered(bco) celldm(2)=b/a
                                                           celldm(3)=c/a
                    v1 = (a/2, b/2,0),  v2 = (-a/2,b/2,0),  v3 = (0,0,c)
               -9          as 9, alternate description
                    v1 = (a/2,-b/2,0),  v2 = (a/2, b/2,0),  v3 = (0,0,c)

               10          Orthorhombic face-centered      celldm(2)=b/a
                                                           celldm(3)=c/a
                    v1 = (a/2,0,c/2),  v2 = (a/2,b/2,0),  v3 = (0,b/2,c/2)

               11          Orthorhombic body-centered      celldm(2)=b/a
                                                           celldm(3)=c/a
                    v1=(a/2,b/2,c/2),  v2=(-a/2,b/2,c/2),  v3=(-a/2,-b/2,c/2)

               12          Monoclinic P, unique axis c     celldm(2)=b/a
                                                           celldm(3)=c/a,
                                                           celldm(4)=cos(ab)
                    v1=(a,0,0), v2=(b*cos(gamma),b*sin(gamma),0),  v3 = (0,0,c)
                    where gamma is the angle between axis a and b.
              -12          Monoclinic P, unique axis b     celldm(2)=b/a
                                                           celldm(3)=c/a,
                                                           celldm(5)=cos(ac)
                    v1 = (a,0,0), v2 = (0,b,0), v3 = (c*cos(beta),0,c*sin(beta))
                    where beta is the angle between axis a and c

               13          Monoclinic base-centered        celldm(2)=b/a
                                                           celldm(3)=c/a,
                                                           celldm(4)=cos(ab)
                    v1 = (  a/2,         0,                -c/2),
                    v2 = (b*cos(gamma), b*sin(gamma), 0),
                    v3 = (  a/2,         0,                  c/2),
                    where gamma is the angle between axis a and b

               14          Triclinic                       celldm(2)= b/a,
                                                           celldm(3)= c/a,
                                                           celldm(4)= cos(bc),
                                                           celldm(5)= cos(ac),
                                                           celldm(6)= cos(ab)
                    v1 = (a, 0, 0),
                    v2 = (b*cos(gamma), b*sin(gamma), 0)
                    v3 = (c*cos(beta),  c*(cos(alpha)-cos(beta)cos(gamma))/sin(gamma),
                         c*sqrt( 1 + 2*cos(alpha)cos(beta)cos(gamma)
                                   - cos(alpha)^2-cos(beta)^2-cos(gamma)^2 )/sin(gamma) )
                where alpha is the angle between axis b and c
                       beta is the angle between axis a and c
                      gamma is the angle between axis a and b
	    }	
	}
	
	group {
	    label { Either: }

	    dimension celldm -start 1 -end 6 -type REAL {
		see  { ibrav }
		info {
                    Crystallographic constants - see the "ibrav" variable.
                    Specify either these OR A,B,C,cosAB,cosBC,cosAC NOT both.
                    Only needed values (depending on "ibrav") must be specified
                    alat = celldm(1) is the lattice parameter "a" (in BOHR)
                    If ibrav=0, only celldm(1) is used if present;
                    cell vectors are read from card CELL_PARAMETERS
		}
	    }

	    label { Or: }

	    vargroup -type REAL {
		var A
		var B
		var C
		var cosAB
		var cosAC
		var cosBC
		info {
                    Traditional crystallographic constants: a,b,c in ANGSTROM
                      cosAB = cosine of the angle between axis a and b (gamma)
                      cosAC = cosine of the angle between axis a and c (beta)
                      cosBC = cosine of the angle between axis b and c (alpha)
                    The axis are chosen according to the value of "ibrav".
                    Specify either these OR "celldm" but NOT both.
                    Only needed values (depending on "ibrav") must be specified
                    The lattice parameter alat = A (in ANGSTROM )
                    If ibrav = 0, only A is used if present;
                    cell vectors are read from card CELL_PARAMETERS
		}
	    }
	}
						   
	var nat -type INTEGER {
	    status { REQUIRED }
	    info {
		number of atoms in the unit cell
	    }
	}
	
	var ntyp -type INTEGER {
	    status { REQUIRED }	    
	    info {
		number of types of atoms in the unit cell
	    }
	}

	var nbnd -type INTEGER {
	    default {
		for an insulator, nbnd = number of valence bands
		(nbnd = # of electrons /2);
		for a metal, 20% more (minimum 4 more)
	    }
	    info {
		number of electronic states (bands) to be calculated.
		Note that in spin-polarized calculations the number of
		k-point, not the number of bands per k-point, is doubled
	    }
	}
	
	var tot_charge -type REAL { 
	    default { 0.0 }
	    info {
		total charge of the system. Useful for simulations with charged cells.
		By default the unit cell is assumed to be neutral (tot_charge=0). 
		tot_charge=+1 means one electron missing from the system,
		tot_charge=-1 means one additional electron, and so on.

		In a periodic calculation a compensating jellium background is 
                inserted to remove divergences if the cell is not neutral.
	    }
	}
	
	var tot_magnetization -type REAL { 
	    default { -1 [unspecified] }
	    info {
		total majority spin charge - minority spin charge.
                Used to impose a specific total electronic magnetization.
		If unspecified, the tot_magnetization variable is ignored 
                and the electronic magnetization is determined by the
                occupation numbers (see card OCCUPATIONS) read from input.
	    }
	}
	

	var ecutwfc -type REAL {
	    status { REQUIRED }
	    info {
		kinetic energy cutoff (Ry) for wavefunctions
	    }
	}
	
	var ecutrho -type REAL { 
	    default { 4 * ecutwfc }
	    info {
		kinetic energy cutoff (Ry) for charge density and potential
                For norm-conserving pseudopotential you should stick to the
                default value, you can reduce it by a little but it will 
                introduce noise especially on forces and stress.
		If there are ultrasoft PP, a larger value than the default is
                often desirable (ecutrho = 8 to 12 times ecutwfc, typically).
                PAW datasets can often be used at 4*ecutwfc, but it depends
                on the shape of augmentation charge: testing is mandatory.
                The use of gradient-corrected functional, especially in cells 
                with vacuum, or for pseudopotential without non-linear core
                correction, usually requires an higher values of ecutrho
                to be accurately converged.
	    }
	}
	
	vargroup -type INTEGER {
            see { ecutrho }
	    var nr1
	    var nr2
	    var nr3
	    info {
		three-dimensional FFT mesh (hard grid) for charge
		density (and scf potential). If not specified
		the grid is calculated based on the cutoff for
		charge density.
	    }
	}

	vargroup -type INTEGER {
	    var nr1s
	    var nr2s
	    var nr3s
	    info {
		three-dimensional mesh for wavefunction FFT and for the smooth
		part of charge density ( smooth grid ).
		Coincides with nr1, nr2, nr3 if ecutrho = 4 * ecutwfc ( default )
	    }
	}
	

	vargroup -type INTEGER {
	    var nr1b
	    var nr2b
	    var nr3b
	    info {
               dimensions of the "box" grid for Ultrasoft pseudopotentials
               must be specified if Ultrasoft PP are present
	    }
	}


	var occupations -type CHARACTER {
	    info {
               a string describing the occupation of the electronic states.
               In the case of conjugate gradient style of minimization
               of the electronic states, if occupations is set to 'ensemble',
               this allows ensemble DFT calculations for metallic systems
	    }
	}

	var degauss -type REAL { 
	    default { 0.D0 Ry }
	    info {
               parameter for the smearing function, only used for ensemble DFT
               calculations
	    }
	}
	
	var smearing -type CHARACTER {
	    info {
               a string describing the kind of occupations for electronic states
               in the case of ensemble DFT (occupations == 'ensemble' );
               now only Fermi-Dirac ('fd') case is implemented
	    }
	}
	
	var nspin -type INTEGER {
	    default { 1 }
	    info {
		nspin = 1 :  non-polarized calculation (default)
		
		nspin = 2 :  spin-polarized calculation, LSDA
		             (magnetization along z axis)

	    }
	}

	
	var ecfixed -type REAL { default { 0.0 }; see { q2sigma } }	    
	var qcutz   -type REAL { default { 0.0 }; see { q2sigma } }	    
	var q2sigma -type REAL { 
	    default { 0.1 } 
	    info { 
		ecfixed, qcutz, q2sigma:  parameters for modified functional to be 
		used in variable-cell molecular dynamics (or in stress calculation).
		"ecfixed" is the value (in Rydberg) of the constant-cutoff;
		"qcutz" and "q2sigma" are the height and the width (in Rydberg)
		of the energy step for reciprocal vectors whose square modulus
		is greater than "ecfixed". In the kinetic energy, G^2 is
		replaced by G^2 + qcutz * (1 + erf ( (G^2 - ecfixed)/q2sigma) )
		See: M. Bernasconi et al, J. Phys. Chem. Solids 56, 501 (1995)
	    }
	}
	
	var input_dft -type CHARACTER {
	    default { read from pseudopotential files } 
	    info {
                   Exchange-correlation functional: eg 'PBE', 'BLYP' etc
                   See Modules/funct.f90 for allowed values. 
                   Overrides the value read from pseudopotential files.
                   Use with care and if you know what you are doing!

                   Use 'PBE0' to perform hybrid functional calculation using Wannier functions. 
                   Allowed calculation: 'cp-wf' and 'vc-cp-wf'
                   See CP specific user manual for further guidance (or in CPV/Doc/user_guide.tex) 
                   and examples in CPV/examples/EXX-wf-example. 
                   Also see related keywords starting with exx_.
	    }
	}

	var exx_fraction -type REAL { 
	    default { it depends on the specified functional }
	    info {
		Fraction of EXX for hybrid functional calculations. In the case of 
		input_dft='PBE0', the default value is 0.25.
	    }
	}

        var lda_plus_u        -type LOGICAL {
            default { .FALSE. }
            info { lda_plus_u = .TRUE. enables calculation with LDA+U
                   ("rotationally invariant"). See also Hubbard_U.
                   Anisimov, Zaanen, and Andersen, PRB 44, 943 (1991); 
                   Anisimov et al., PRB 48, 16929 (1993);
                   Liechtenstein, Anisimov, and Zaanen, PRB 52, R5467 (1994);
                   Cococcioni and de Gironcoli, PRB 71, 035105 (2005).
            }
        }
        dimension Hubbard_U -start 1 -end ntyp -type REAL {
            default { 0.D0 for all species }
            status {
                LDA+U works only for a few selected elements. Modify
                CPV/ldaU.f90 if you plan to use LDA+U with an    
                element that is not configured there.
            }
            info {
                Hubbard_U(i): parameter U (in eV) for LDA+U calculations.
                Currently only the simpler, one-parameter LDA+U is 
                implemented (no "alpha" or "J" terms)
            }
        }
        var vdw_corr -type CHARACTER {
          default { 'none' }
          info {
               Type of Van der Waals correction. Allowed values:

                  'grimme-d2', 'Grimme-D2', 'DFT-D', 'dft-d': semiempirical Grimme's DFT-D2.
                   Optional variables: "london_s6", "london_rcut"
                   S. Grimme, J. Comp. Chem. 27, 1787 (2006),
                   V. Barone et al., J. Comp. Chem. 30, 934 (2009). 

                   'TS', 'ts', 'ts-vdw', 'ts-vdW', 'tkatchenko-scheffler': Tkatchenko-Scheffler
                    dispersion corrections with first-principle derived C6 coefficients
                    Optional variables: "ts_vdw_econv_thr", "ts_vdw_isolated"
                    See A. Tkatchenko and M. Scheffler, Phys. Rev. Lett. 102, 073005 (2009)

                   'XDM', 'xdm': Exchange-hole dipole-moment model. Optional variables: "xdm_a1", "xdm_a2"
                    (implemented in PW only)
                    A. D. Becke and E. R. Johnson, J. Chem. Phys. 127, 154108 (2007)
 		    A. Otero de la Roza, E. R. Johnson, J. Chem. Phys. 136, 174109 (2012)

               Note that non-local functionals (eg vdw-DF) are NOT specified here but in "input_dft"
          }
        }

        var london_s6 -type REAL {
          default { 0.75 }
          info {
              global scaling parameter for DFT-D. Default is good for PBE.
          }
        }
        var london_rcut -type REAL {
          default { 200 }
          info {
              cutoff radius (a.u.) for dispersion interactions
          }
        }

        var ts_vdw -type LOGICAL {
          default { .FALSE. }
          info {
             OBSOLESCENT, same as vdw_corr='TS'
          }
        }

        var ts_vdw_econv_thr -type REAL {
          default { 1.D-6 }
          info {
             Optional: controls the convergence of the vdW energy (and forces). The default value
             is a safe choice, likely too safe, but you do not gain much in increasing it
          }
        }

        var ts_vdw_isolated -type LOGICAL {
          default { .FALSE. }
          info {
             Optional: set it to .TRUE. when computing the Tkatchenko-Scheffler vdW energy
             for an isolated (non-periodic) system.
          }
        }

        var assume_isolated -type CHARACTER {
            default { 'none' }
            info {
                Used to perform calculation assuming the system to be
                isolated (a molecule of a clustr in a 3D supercell).

                Currently available choices:

                'none' (default): regular periodic calculation w/o any correction.

                'makov-payne', 'm-p', 'mp' : the Makov-Payne correction to the
                         total energy is computed.
                         Theory:
                         G.Makov, and M.C.Payne,
                         "Periodic boundary conditions in ab initio
                         calculations" , Phys.Rev.B 51, 4014 (1995)


            }
        }
    }

    #
    # namelist ELECTRONS
    #

    namelist ELECTRONS {

	var electron_maxstep 	-type INTEGER { 
	    default { 100 }
	    info {
		maximum number of iterations in a scf step
	    }
	}


        var electron_dynamics    -type CHARACTER {
            default { 'none' }
            info {
               set how electrons should be moved
               'none'    : electronic degrees of freedom (d.o.f.) are kept fixed
               'sd'      : steepest descent algorithm is used to minimize
                         electronic d.o.f.
               'damp'    : damped dynamics is used to propagate electronic d.o.f.
               'verlet'  : standard Verlet algorithm is used to propagate
                         electronic d.o.f.
               'cg'      : conjugate gradient is used to converge the
                         wavefunction at each ionic step. 'cg' can be used
                         interchangeably with 'verlet' for a couple of ionic
                         steps in order to "cool down" the electrons and
                         return them back to the Born-Oppenheimer surface.
                         Then 'verlet' can be restarted again. This procedure
                         is useful when electronic adiabaticity in CP is lost
                         yet the ionic velocities need to be preserved.

            }
        }


	var conv_thr -type REAL { 
	    default { 1.D-6 }
	    info {
		Convergence threshold for selfconsistency:
		estimated energy error < conv_thr
	    }
	}
	 

	var niter_cg_restart -type INTEGER {
            default { 20 }
	    info {
               frequency in iterations for which the conjugate-gradient algorithm
               for electronic relaxation is restarted
	    }
	}


        var efield -type REAL {
            default { 0.D0 }
            info {
                Amplitude of the finite electric field (in a.u.;
                1 a.u. = 51.4220632*10^10 V/m). Used only if tefield=.TRUE.
	    }
	}


        var epol -type INTEGER {
            default { 3 }
            info {
               direction of the finite electric field (only if tefield == .TRUE.)
               In the case of a PARALLEL calculation only the case epol==3
               is implemented
	    }
	}


        var emass -type REAL {
            default { 400.D0 }
            info {
               effective electron mass in the CP Lagrangian, in atomic units
               ( 1 a.u. of mass = 1/1822.9 a.m.u. = 9.10939 * 10^-31 kg )
            }
        }


        var emass_cutoff -type REAL {
            default { 2.5D0 }
            info {
               mass cut-off (in Rydberg) for the Fourier acceleration
               effective mass is rescaled for "G" vector components with
               kinetic energy above "emass_cutoff"
            }
        }

      
        var orthogonalization -type CHARACTER {
            default { 'ortho' }
            info {
               selects the orthonormalization method for electronic wave
               functions
               'ortho'        : use iterative algorithm - if it doesn't converge,
                                reduce the timestep, or use options ortho_max
                                and ortho_eps, or use Gram-Schmidt instead just
                                to start the simulation
               'Gram-Schmidt' : use Gram-Schmidt algorithm - to be used ONLY in
                                the first few steps.
                                YIELDS INCORRECT ENERGIES AND EIGENVALUES.
            }
        }


        var ortho_eps -type REAL {
            default { 1.D-8 }
            info {
               tolerance for iterative orthonormalization
               meaningful only if orthogonalization = 'ortho'
            }
        }

