--
&inputph
  prefix      = 'lif'
  outdir      = './'
  epsil       = .true.
  zeu         = .true.
  ldisp       = .true.
  fildyn      = 'lif.dyn'
  fildvscf    = 'dvscf'
  tr2_ph      =  1.0d-14,
  nq1         = 4 
  nq2         = 4 
  nq3         = 4 
/
