

  &INPUT
    prefix='silicon'
    work_dir='./'
    ib = 4
    ik = 2
  /
