 &CONTROL
    calculation='scf',
    restart_mode='from_scratch',
    pseudo_dir='./pseudo',
    outdir='./save',
    prefix= 'a_blocco',
    tprnfor=.true.,
/
 &SYSTEM
    ibrav=1,
    celldm(1)=   18.866000000000000,
    nat=    72,
    ntyp=     2,
    ecutwfc=  70.000,
/
 &ELECTRONS
    conv_thr = 1.D-10,
    mixing_beta = 0.7,
/
 ATOMIC_SPECIES
   Si     28.08550000 Si_ONCV_PBE-1.1.upf
   O     15.99940000 O_ONCV_PBE-1.0.upf
 ATOMIC_POSITIONS {bohr}
Si   -6.42591066869540    7.68021500930020    6.32259116294700
Si    4.08198030089540   -2.60814459459120    5.36326983454650
Si   -4.50745521865770    2.58152522900700    3.44350743083440
Si    5.40789665681560   -2.90519728825300   -7.80227836431420
Si   -6.71294873531120   -2.80415113726860    3.85880955373420
Si    2.73584480365670   -8.24428906145210   -6.59166801097680
Si   -7.96082494215470   -1.14203225535870   -9.34215827583700
Si    4.34024821894790   -8.15505998692320    3.33302349109490
Si   -3.03588841855140   -4.71145349926030   -1.86617034603470
Si    0.95612690061057   -1.09700727256700    0.78389737860782
Si    9.09745947076800    4.41268807282000    9.23814085225350
Si    5.81426881003340   -1.58685524053960   -2.30602459757300
Si    4.74621056584770    5.28302890997870   -5.78847788117970
Si   -1.18513845133200    3.84563447747540   -0.99701304751293
Si   -8.67494810263470   -5.09694009983790   -0.71053161633561
Si   -2.69832789262640   -2.91377564839340   -7.32248102457630
Si   -9.41409300406260    8.64112931986610    1.19395837404940
Si   -0.33378239658599    3.53419612399100    6.91969233754790
Si    6.79933782037930    3.80285655784120   -0.45748050489223
Si    0.82122501764999    9.18619255348980    7.09266784984170
Si   -3.04813209492310   -6.27732365561320    6.40839262020130
Si    0.42355022103378   -9.04039310401270   -1.08975702445590
Si   -0.33470708410973    2.19419864552790   -6.54677330988200
Si    5.25077770416390    2.81145659041740    5.03062761116550
O   -0.33099732288377    6.80230624671090   -0.96432233979129
O   -3.61904273297660    3.65512433575920    0.75445557696302
O   -7.49876536171720   -2.42069088389700    6.78918541970420
O   -1.42091608832560    3.24232402668920   -9.15110449623660
O    7.28471093153520    4.15203031413770    6.89881899395490
O   -5.49873297425150   -1.73356542673280   -7.67429943927920
O    7.82009205083950   -3.96205468982660   -2.14172278708450
O    9.02247087790050    5.72860851861750    0.19528555400914
O   -8.29680916658230    1.77985368688820    9.11104800025140
O    2.57070435688740    3.12911005025090    6.48569779675090
O    4.03578444699920   -2.30488689355960    8.36894438944410
O    5.41826839365880    3.67814465836950    2.24091817947750
O   -6.06530777127190    0.02525608681261    3.02563247200370
O    1.66428058894120   -8.23941995898240   -3.76510113479950
O   -5.69584970534140    4.93459076268790    5.13327610838010
O   -2.01751536521560    1.95133181402140    5.02785584249480
O    0.69110616237018    1.85846017304870    0.22534307974378
O   -7.90393878932610    8.76283857906370    3.84637571969770
O   -1.29653492707130   -2.49076255203860   -0.60382654196458
O    5.93805677539630   -0.23445274348898    4.86938729720410
O   -0.59783325439223   -0.83160889605819   -6.93574016794130
O    2.27392622109870    3.59704599849490   -6.37341489854940
O    6.81237981107910   -9.15353177197910    2.06193722304190
O   -5.91888468272000   -4.13159099358790   -1.57348831859930
O   -8.51186371205840   -8.16580838483860   -0.84268374472388
O    3.61698023077710    9.07977092701880    5.93012336420380
O   -1.76983784990730    2.78231791909480   -3.79567031792400
O   -4.63979302084470   -8.82151466891580    6.98604769970000
O    5.01772795553420   -1.26166331710530   -5.32785895608300
O    1.58755148972780   -1.88108708791070    3.76182902764970
O    7.10315020309950    1.04250552661230   -1.43676888722400
O   -7.96971707748150    6.85608308151210    8.80276935889210
O    4.97901307531460    5.01707355130450   -2.69196353248740
O    0.75572076204281   -9.02870796403040   -8.89911050168750
O   -0.24777330504623   -7.23149533080170    5.62674925302770
O    4.81829593414740   -5.32560512175380    4.39059844658970
O    4.27457829748840   -5.68606496100520   -7.23194885271800
O    4.34670578048600    8.15457653278670   -6.66437870149250
O    8.39442629722730   -2.45038889483700   -8.34610759290220
O   -2.66064245804340   -4.45408697623360    8.79928157778760
O    3.51504115890290   -2.06260947953190   -0.54242066429050
O   -2.03749750955370   -7.28646014571950   -0.74797432287192
O    2.23134328499830   -8.39679623065200    1.26388690002050
O   -2.50169218049660   -4.73816033820080   -4.91477286832490
O   -4.50442415352210   -4.75611710878750    4.26551049733430
O   -8.77192754418660   -4.19122953638170    2.17700838026770
O    7.38182874806470    4.46218115355900   -7.14390502226600
O   -0.66258303963858    6.64920827159370    6.38383291315690
 K_POINTS {Gamma}
