 &control
    calculation     = 'nscf'
    prefix          = 'BAs'
    restart_mode    = 'from_scratch'
    pseudo_dir      = '../../pseudo/'
    verbosity = 'high'
 /
 &system
    ibrav     = 2
    celldm(1) = 9.11
    nat       = 2
    ntyp      = 2
    ecutwfc   = 40.0
    nbnd = 4
 /
 &electrons
    conv_thr = 1.d-10
 /
ATOMIC_SPECIES
  B  10.81    B.pz-vbc.UPF
 As  74.922   As.pz-bhs.UPF
ATOMIC_POSITIONS crystal
  B  0.125   0.125   0.125
 As -0.125  -0.125  -0.125
K_POINTS crystal
8
  0.000000000000  0.000000000000  0.000000000000  1.25000000e-01
  0.000000000000  0.000000000000  0.500000000000  1.25000000e-01
  0.000000000000  0.500000000000  0.000000000000  1.25000000e-01
  0.000000000000  0.500000000000  0.500000000000  1.25000000e-01
  0.500000000000  0.000000000000  0.000000000000  1.25000000e-01
  0.500000000000  0.000000000000  0.500000000000  1.25000000e-01
  0.500000000000  0.500000000000  0.000000000000  1.25000000e-01
  0.500000000000  0.500000000000  0.500000000000  1.25000000e-01
