 conv_tol = 1d-13 
 conv_window = 5 
 num_iter = 1000 
 iprint = 2 

Begin Projections
 Ti:d
  O:p
End Projections

 dis_conv_tol = 1d-13
 dis_conv_window = 9 
 dis_num_iter = 1500 

 num_wann  = 22
 num_bands = 22
 exclude_bands : 1-12,35-38

 write_u_matrices = .true.

Begin Unit_Cell_Cart
Ang
   4.5940999985    0.0000000000     0.0000000000
   0.0000000000    4.5940999985     0.0000000000
   0.0000000000    0.0000000000     2.9588999748
End Unit_Cell_Cart

Begin Atoms_Cart
Ang
Ti      0.0000000    0.0000000    0.0000000
Ti      2.2970525    2.2970525    1.4794516
O       1.4044179    1.4044179    0.0000000
O       3.7014704    0.8926346    1.4794516
O       0.8926346    3.7014704    1.4794516
O       3.1896871    3.1896871    0.0000000
End Atoms_Cart

mp_grid = 2 2 4

Begin Kpoints
  0.00000000  0.00000000  0.00000000
  0.00000000  0.00000000  0.25000000
  0.00000000  0.00000000  0.50000000
  0.00000000  0.00000000  0.75000000
  0.00000000  0.50000000  0.00000000
  0.00000000  0.50000000  0.25000000
  0.00000000  0.50000000  0.50000000
  0.00000000  0.50000000  0.75000000
  0.50000000  0.00000000  0.00000000
  0.50000000  0.00000000  0.25000000
  0.50000000  0.00000000  0.50000000
  0.50000000  0.00000000  0.75000000
  0.50000000  0.50000000  0.00000000
  0.50000000  0.50000000  0.25000000
  0.50000000  0.50000000  0.50000000
  0.50000000  0.50000000  0.75000000
End Kpoints

 write_hr = false 
 bands_plot= true
 bands_num_points = 50 
 begin kpoint_path
G       0.00000  0.00000  0.00000  X       0.50000  0.00000  0.00000
X       0.50000  0.00000  0.00000  M       0.50000 -0.50000  0.00000
M       0.50000 -0.50000  0.00000  X       0.00000 -0.50000  0.00000
X       0.00000 -0.50000  0.00000  R       0.00000 -0.50000  0.50000
R       0.00000 -0.50000  0.50000  Z       0.00000  0.00000  0.50000
Z       0.00000  0.00000  0.50000  R       0.50000  0.00000  0.50000
R       0.50000  0.00000  0.50000  A       0.50000 -0.50000  0.50000
A       0.50000 -0.50000  0.50000  G       0.00000  0.00000  0.00000
G       0.00000  0.00000  0.00000  R      -0.50000  0.00000  0.50000
R      -0.50000  0.00000  0.50000  X       0.00000  0.50000  0.00000
end kpoint_path
