 &INPUTPP
   prefix = 'TiO2'
   outdir = '/home/timrov_i/WORKSPACE/PSI/Gitlab/tmp1/q-e/tempdir/',
   seedname = 'TiO2',
   hubbard = .true.
   exclude_ks_bands = 12
   wan2hub(1)  = .true.
   wan2hub(2)  = .true.
   wan2hub(3)  = .true.
   wan2hub(4)  = .true.
   wan2hub(5)  = .true.
   wan2hub(6)  = .true.
   wan2hub(7)  = .true.
   wan2hub(8)  = .true.
   wan2hub(9)  = .true.
   wan2hub(10) = .true.
 /
