input_description -distribution {Quantum Espresso} -package PWscf -program pw.x {

    toc {}

    intro {
	Input data format: { } = optional, [ ] = it depends, | = or
	
	All quantities whose dimensions are not explicitly specified are in
	RYDBERG ATOMIC UNITS

	Structure of the input data:
	===============================================================================

	&CONTROL
	  ...
	/

	&SYSTEM
	 ...
	/

	&ELECTRONS
	...
	/

	[ &IONS
	  ...
	 / ]

	[ &CELL
	  ...
	 / ]

	[ &PHONON
	  ...
	 / ]

	[ &EE
	  ...
	 / ]

	ATOMIC_SPECIES
	 X  Mass_X  PseudoPot_X
	 Y  Mass_Y  PseudoPot_Y
	 Z  Mass_Z  PseudoPot_Z

	ATOMIC_POSITIONS { alat | bohr | crystal | angstrom }
	in all cases except calculation = 'neb' or 'smd' :
	  X 0.0  0.0  0.0  {if_pos(1) if_pos(2) if_pos(3)}
	  Y 0.5  0.0  0.0
	  Z O.0  0.2  0.2
	if calculation = 'neb' .OR. 'smd' :
	  first_image
	  X 0.0  0.0  0.0  {if_pos(1) if_pos(2) if_pos(3)}
	  Y 0.5  0.0  0.0
	  Z O.0  0.2  0.2
	  { intermediate_image 1
	    X 0.0  0.0  0.0
	    Y 0.9  0.0  0.0
	    Z O.0  0.2  0.2
	    intermediate_image ...
	    X 0.0  0.0  0.0
	    Y 0.9  0.0  0.0
	    Z O.0  0.2  0.2 }
	  last_image
	  X 0.0  0.0  0.0
	  Y 0.7  0.0  0.0
	  Z O.0  0.5  0.2

	K_POINTS { tpiba | automatic | crystal | gamma }
	if (gamma)
	   nothing to read
	if (automatic)
	   nk1, nk2, nk3, k1, k2, k3
	if (not automatic)
	   nks
	   xk_x, xk_y, xk_z,  wk

	[ CELL_PARAMETERS { cubic | hexagonal }
	   v1(1) v1(2) v1(3)
	   v2(1) v2(2) v2(3)
	   v3(1) v3(2) v3(3) ]

	[ OCCUPATIONS
	   f_inp1(1)  f_inp1(2)  f_inp1(3) ... f_inp1(10)
	   f_inp1(11) f_inp1(12) ... f_inp1(nbnd)
	 [ f_inp2(1)  f_inp2(2)  f_inp2(3) ... f_inp2(10)
	   f_inp2(11) f_inp2(12) ... f_inp2(nbnd) ] ]

	[ CLIMBING_IMAGES
	   list of images, separated by a comma ]

	[ CONSTRAINTS
	   nconstr  { constr_tol }
	   constr_type(.)   constr(1,.)   constr(2,.) [ constr(3,.)   constr(4,.) ] { constr_target(.) } ]

	[ COLLECTIVE_VARS
	   ncolvar  { colvar_tol }
	   colvar_type(.)   colvar(1,.)   colvar(2,.) [ colvar(3,.)   colvar(4,.) ] ]
    }


    #
    # namelist CONTROL
    #

    namelist CONTROL {

	var calculation -type CHARACTER {
	    default { 'scf' }
	    info {
		a string describing the task to be performed:
		'scf', 'nscf', 'bands', 'phonon', 'relax', 'md',
		'vc-relax', 'vc-md', 'neb', 'smd', 'metadyn'
		(vc = variable-cell).
	    }
	}
	
	var title -type CHARACTER {
	    default {' '}
	    info {
		reprinted on output.
	    }
	}
	
	var verbosity -type CHARACTER {
	    info {
		'high' | 'default' | 'low' | 'minimal'
	    }
	}
	
	var restart_mode -type CHARACTER {
	    default { 'from_scratch' }
	    info {
		'from_scratch'  : from scratch
	                          NEB and SMD only: the starting path is obtained
	                          with a linear interpolation between the images
	                          specified in the ATOMIC_POSITIONS card.
			          Note that in the linear interpolation
	                          periodic boundary conditions ARE NON USED.
	    
		'restart'       : from previous interrupted run
	    }
	}
	
	var wf_collect -type LOGICAL { 
	    default { .FALSE. }
	    info {
		This flag controls the way wavefunctions are stored to disk :

		.TRUE.  collect wavefunctions from all processors and store
                        them into the output data directory outdir/prefix.save

		.FALSE. do not collect wavefunctions, leave them in temporary
	                local files (one per processor). The resulting format
	                will be readable only by jobs running on the same
	                number of processors and pools. Useful if you do not
	                need the wavefunction or if you want to reduce the I/O
	                or the disk occupancy.
	    }
	}
	

	var nstep -type INTEGER {
	    info {
		number of ionic + electronic steps
	    }
	    default {
		1  if calculation = 'scf', 'nscf', 'bands';
		0  if calculation = 'neb', 'smd';
		50 for the other cases
	    }
	}
	
	var iprint -type INTEGER {
	    default { write only at convergence }
	    info {
		band energies are written every iprint iterations
	    }
	}
	
	var tstress -type LOGICAL {
	    info {
		calculate stress. Set to .TRUE. if calculation='vc-md'
	    }
	}
	
	
	var tprnfor -type LOGICAL {
	    info {
		print forces. Set to .TRUE. if calculation='relax','md','vc-md'
	    }
	}
	
	var dt -type REAL { 
	    default { 20.D0 }
	    info {
		time step for molecular dynamics, in Rydberg atomic units
		(1 a.u.=4.8378 * 10^-17 s : beware, CP and FPMD codes use
		 Hartree atomic units, half that much!!!)
	    }
	}
	
	var outdir -type CHARACTER { 
	    default { 
		value of the ESPRESSO_TMPDIR environment variable if set; 
		current directory ('./') otherwise 
	    }
	    info {
		input, temporary, output files are found in this directory,
		see also 'wfcdir'
	    }
	}

	var wfcdir -type CHARACTER { 
	    default { same as outdir }
	    info {
		this directory specifies where to store files generated by
		each processor (*.wfc{N}, *.igk{N}, etc.). The idea here is
		to be able to separately store the largest files, while
		the files necessary for restarting still go into 'outdir'
		(for now only works for stand alone PW )
	    }
	}
	
	var prefix -type CHARACTER { 
	    default { 'pwscf' }
	    info {
		prepended to input/output filenames:
		prefix.wfc, prefix.rho, etc.
	    }
	}

	var lkpoint_dir -type LOGICAL { 
	    default { .true. }
	    info {
		If .false. it does not open a subdirectory for each k_point 
		in the prefix.save directory. 
	    }
	}
       		
	var max_seconds -type REAL { 
	    default { 1.D+7, or 150 days, i.e. no time limit }
	    info {
		jobs stops after max_seconds CPU time
	    }	    
	}

	var etot_conv_thr -type REAL { 
	    default { 1.0D-4 }
	    info {
		convergence threshold on total energy (a.u) for ionic
		minimization: the convergence criterion is satisfied
		when the total energy changes less than etot_conv_thr
		between two consecutive scf steps.
		See also forc_conv_thr - both criteria must be satisfied
	    }
	}

	var forc_conv_thr -type REAL { 
	    default { 1.0D-3 }
	    info {
		convergence threshold on forces (a.u) for ionic
		minimization: the convergence criterion is satisfied
		when all components of all forces are smaller than
		forc_conv_thr.
		See also etot_conv_thr - both criteria must be satisfied
	    }
	}
		
	var disk_io -type CHARACTER { 
	    default { 'default' }
	    info {
               Specifies the amount of disk I/O activity
               'high':    save all data at each SCF step

               'default': save wavefunctions at each SCF step unless
                          there is a single k-point per process

               'low' :    store wfc in memory, save only at the end

               'none':    do not save wfc, not even at the end

               If restarting from an interrupted calculation, the code
               will try to figure out what is available on disk. The
               more you write, the more complete the restart will be.
	    }
	}

	var pseudo_dir -type CHARACTER { 
	    default { 
		value of the $ESPRESSO_PSEUDO environment variable if set; 
		'$HOME/espresso/pseudo/' otherwise 
	    }
	    info {
		directory containing pseudopotential files
	    }
	}

	var tefield -type LOGICAL { 
	    default { .FALSE. }
	    info {
		If .TRUE. a sawlike potential simulating an electric field
		is added to the bare ionic potential. See variables
		edir, eamp, emaxprog, eopreg for the form and size of
		the added potential.
	    }
	}

	var dipfield -type LOGICAL { 
	    default { .FALSE. }
	    info {
		If .TRUE. and tefield=.TRUE. a dipole correction is also
		added to the bare ionic potential - implements the recipe
		of L. Bengtsson, PRB 59, 12301 (1999). See variables edir,
		emaxprog, eopreg for the form of the correction, that must
		be used only in a slab geometry, for surface calculations,
		with the discontinuity in the empty space.
	    }
	}

	var lelfield -type LOGICAL { 
	    default { .FALSE. }
	    info {
		If .TRUE. a homogeneous finite electric field described
		through the modern theory of the polarization is applied.
		This is different from "tefield=.true." !
	    }
	}
	
	var lberry -type LOGICAL {  
	    default { .FALSE. }
	    info {
		If .TRUE. perform a Berry phase calculation
		See the header of PW/bp_c_phase.f90 for documentation
	    }
	}
		
	var gdir -type INTEGER {
	    info {
               For Berry phase calculation: direction of the k-point
               strings in reciprocal space. Allowed values: 1, 2, 3
               1=first, 2=second, 3=third reciprocal lattice vector
               For calculations with finite electric fields
               (lelfield==.true.), gdir is the direction of the field
	    }
	}

	var nppstr -type INTEGER {
	    info {
		For Berry phase calculation: number of k-points to be
		calculated along each symmetry-reduced string
		The same for calculation with finite electric fields
		(lelfield==.true.)
	    }
	}

	var nberrycyc -type INTEGER { 
	    default { 1 }
	    info {
		In the case of a finite electric field  ( lelfield == .TRUE. )
		it defines the number of iterations for converging the
		wavefunctions in the electric field Hamiltonian, for each
		external iteration on the charge density
	    }
	}
    }

    #
    # NAMELIST &SYSTEM
    #

    namelist SYSTEM {

	var ibrav -type INTEGER {
	    status { REQUIRED }
	    info {
                Bravais-lattice index:
              
                  ibrav        structure                   celldm(2)-celldm(6)
              
                    0          "free", see above                 not used
                    1          cubic P (sc)                      not used
                    2          cubic F (fcc)                     not used
                    3          cubic I (bcc)                     not used
                    4          Hexagonal and Trigonal P        celldm(3)=c/a
                    5          Trigonal R                      celldm(4)=cos(alpha)
                    6          Tetragonal P (st)               celldm(3)=c/a
                    7          Tetragonal I (bct)              celldm(3)=c/a
                    8          Orthorhombic P                  celldm(2)=b/a,celldm(3)=c/a
                    9          Orthorhombic base-centered(bco) celldm(2)=b/a,celldm(3)=c/a
                   10          Orthorhombic face-centered      celldm(2)=b/a,celldm(3)=c/a
                   11          Orthorhombic body-centered      celldm(2)=b/a,celldm(3)=c/a
                   12          Monoclinic P                    celldm(2)=b/a,celldm(3)=c/a,
                                                               celldm(4)=cos(ab)
                   13          Monoclinic base-centered        celldm(2)=b/a,celldm(3)=c/a,
                                                               celldm(4)=cos(ab)
                   14          Triclinic                       celldm(2)= b/a,
                                                               celldm(3)= c/a,
                                                               celldm(4)= cos(bc),
                                                               celldm(5)= cos(ac),
                                                               celldm(6)= cos(ab)
              
                For P lattices: the special axis (c) is the z-axis, one basal-plane
                vector (a) is along x, the other basal-plane vector (b) is at angle
                gamma for monoclinic, at 120 degrees for trigonal and hexagonal
                lattices, at 90 degrees for cubic, tetragonal, orthorhombic lattices
              
                sc simple cubic
                ====================
                v1 = a(1,0,0),  v2 = a(0,1,0),  v3 = a(0,0,1)
              
                fcc face centered cubic
                ====================
                v1 = (a/2)(-1,0,1),  v2 = (a/2)(0,1,1), v3 = (a/2)(-1,1,0).
              
                bcc body entered cubic
                ====================
                v1 = (a/2)(1,1,1),  v2 = (a/2)(-1,1,1),  v3 = (a/2)(-1,-1,1).
              
                simple hexagonal and trigonal(p)
                ====================
                v1 = a(1,0,0),  v2 = a(-1/2,sqrt(3)/2,0),  v3 = a(0,0,c/a).
              
                trigonal(r)
                ===================
                for these groups, the z-axis is chosen as the 3-fold axis, but the
                crystallographic vectors form a three-fold star around the z-axis,
                and the primitive cell is a simple rhombohedron. The crystallographic
                vectors are:
                      v1 = a(tx,-ty,tz),   v2 = a(0,2ty,tz),   v3 = a(-tx,-ty,tz).
                where c=cos(alpha) is the cosine of the angle alpha between any pair
                of crystallographic vectors, tc, ty, tz are defined as
                     tx=sqrt((1-c)/2), ty=sqrt((1-c)/6), tz=sqrt((1+2c)/3)
              
                simple tetragonal (p)
                ====================
                   v1 = a(1,0,0),  v2 = a(0,1,0),  v3 = a(0,0,c/a)
              
                body centered tetragonal (i)
                ================================
                   v1 = (a/2)(1,-1,c/a),  v2 = (a/2)(1,1,c/a),  v3 = (a/2)(-1,-1,c/a).
              
                simple orthorhombic (p)
                =============================
                   v1 = (a,0,0),  v2 = (0,b,0), v3 = (0,0,c)
              
                bco base centered orthorhombic
                =============================
                   v1 = (a/2,b/2,0),  v2 = (-a/2,b/2,0),  v3 = (0,0,c)
              
                face centered orthorhombic
                =============================
                   v1 = (a/2,0,c/2),  v2 = (a/2,b/2,0),  v3 = (0,b/2,c/2)
              
                body centered orthorhombic
                =============================
                   v1 = (a/2,b/2,c/2),  v2 = (-a/2,b/2,c/2),  v3 = (-a/2,-b/2,c/2)
              
                monoclinic (p)
                =============================
		   v1 = (a,0,0), v2= (b*cos(gamma), b*sin(gamma), 0),  v3 = (0, 0, c)
                where gamma is the angle between axis a and b
              
                base centered monoclinic
                =============================
                   v1 = (  a/2,         0,                -c/2),
                   v2 = (b*cos(gamma), b*sin(gamma), 0),
                   v3 = (  a/2,         0,                  c/2),
                where gamma is the angle between axis a and b
              
                triclinic
                =============================
                   v1 = (a, 0, 0),
                   v2 = (b*cos(gamma), b*sin(gamma), 0)
                   v3 = (c*cos(beta),  c*(cos(alpha)-cos(beta)cos(gamma))/sin(gamma),
                         c*sqrt( 1 + 2*cos(alpha)cos(beta)cos(gamma)
                                   - cos(alpha)^2-cos(beta)^2-cos(gamma)^2 )/sin(gamma) )
                where alpha is the angle between axis b and c
                       beta is the angle between axis a and c
                      gamma is the angle between axis a and b
	    }	
	}
	
	dimension celldm -start 1 -end 6 -type REAL {
	    see  { ibrav }
	    info {
		Crystallographic constants - see description of ibrav variable.

		* alat = celldm(1) is the lattice parameter "a" (in BOHR)
		* only needed celldm (depending on ibrav) must be specified
		* if ibrav=0 only alat = celldm(1) is used (if present)
	    }
	}

	vargroup -type REAL {
	    var A
	    var B
	    var C
	    var cosAB
	    var cosAC
	    var cosBC
	    info {
		Traditional crystallographic constants (a,b,c in ANGSTROM),
		cosab = cosine of the angle between axis a and b
		specify either these OR celldm but NOT both.
		If ibrav=0 only alat = a is used (if present)
	    }
	}
						   
	var nat -type INTEGER {
	    status { REQUIRED }
	    info {
		number of atoms in the unit cell
	    }
	}
	
	var ntyp -type INTEGER {
	    status { REQUIRED }	    
	    info {
		number of types of atoms in the unit cell
	    }
	}

	var nbnd -type INTEGER {
	    default {
		for an insulator, nbnd = number of valence bands
		(nbnd=nelec/2, see below for nelec);
		for a metal, 20% more (minimum 4 more)
	    }
	    info {
		number of electronic states (bands) to be calculated.
		Note that in spin-polarized calculations the number of
		k-point, not the number of bands per k-point, is doubled
	    }
	}
	
	var nelec -type REAL {
	    default { the same as ionic charge (neutral cell) }
	    info {
		number of electron in the unit cell
		(may be noninteger if you wish)
		
		A compensating jellium background is inserted
		to remove divergences if the cell is not neutral
	    }
	}
		
	var tot_charge -type INTEGER { 
	    default { 0 }
	    info {
		total system charge. Used only if nelec is unspecified,
		otherwise it is ignored.
	    }
	}
	
	var ecutwfc -type REAL {
	    status { REQUIRED }
	    info {
		kinetic energy cutoff (Ry) for wavefunctions
	    }
	}
	
	var ecutrho -type REAL { 
	    default { 4 * ecutwfc }
	    info {
		kinetic energy cutoff (Ry) for charge density and potential
		May be larger ( for ultrasoft PP ) or somewhat smaller
		( but not much smaller ) than the default value. Note that
		if you have norm-conserving PP only, setting it to a larger
		value than the default is a waste of time.
	    }
	}
	
	vargroup -type INTEGER {
	    var nr1
	    var nr2
	    var nr3
	    info {
		three-dimensional FFT mesh (hard grid) for charge
		density (and scf potential). If not specified
		the grid is calculated based on the cutoff for
		charge density (see also "ecutrho")
	    }
	}

	vargroup -type INTEGER {
	    var nr1s
	    var nr2s
	    var nr3s
	    info {
		three-dimensional mesh for wavefunction FFT and for the smooth
		part of charge density ( smooth grid ).
		Coincides with nr1, nr2, nr3 if ecutrho = 4 * ecutwfc ( default )
	    }
	}
	
	var nosym -type LOGICAL { 
	    default { .FALSE. }
	    info {
		if (.TRUE.) symmetry is not used. Note that a k-point grid
		provided in input is used "as is"; an automatically generated
		k-point grid will contain only points in the irreducible BZ
		of the lattice.  Use with care in low-symmetry large cells
		if you cannot afford a k-point grid with the correct symmetry.
	    }
	}

	var noinv -type LOGICAL { 
	    default { .FALSE. }
	    info {
		if (.TRUE.) disable the usage of time reversal (q => -q) 
		symmetry in k-point generation
	    }
	}

	var occupations -type CHARACTER {
	    info {
		'smearing':     gaussian smearing for metals
		                requires a value for degauss

		'tetrahedra' :  for metals and DOS calculation
                                (see PRB49, 16223 (1994))
                                Requires uniform grid of k-points,
                                automatically generated (see below)
                                Not suitable (because not variational) for
                                force/optimization/dynamics calculations

		'fixed' :       for insulators with a gap

		'from_input' :  The occupation are read from input file.
                                Presently works only with one k-point
                                (LSDA allowed).
	    }
	}

	var degauss -type REAL { 
	    default { 0.D0 Ry }
	    info {
		value of the gaussian spreading (Ry) for brillouin-zone
		integration in metals.
	    }
	}
	
	var smearing -type CHARACTER {
	    default { 'gaussian' }
	    info {
		'gaussian', 'gauss':
		    ordinary Gaussian spreading (Default)
		    
		'methfessel-paxton', 'm-p', 'mp':
		    Methfessel-Paxton first-order spreading
		    (see PRB 40, 3616 (1989)).
		    
		'marzari-vanderbilt', 'cold', 'm-v', 'mv':
		    Marzari-Vanderbilt cold smearing
		    (see PRL 82, 3296 (1999))
		    
		'fermi-dirac', 'f-d', 'fd':
		    smearing with Fermi-Dirac function
	    }
	}
	
	var nspin -type INTEGER {
	    default { 1 }
	    info {
		nspin = 1 :  non-polarized calculation (default)
		
		nspin = 2 :  spin-polarized calculation, LSDA
		             (magnetization along z axis)

		nspin = 4 :  spin-polarized calculation, noncollinear
                             (magnetization in generic direction)
                             DO NOT specify nspin in this case;
                             specify "noncolin=.TRUE." instead
	    }
	}

	var noncolin -type LOGICAL {
	    default { .false. }
	    info {
		if .true. the program will perform a noncollinear calculation.
	    }
	}
	
	dimension starting_magnetization -start 1 -end ntyp -type REAL {
	    info {
		starting spin polarization (values between -1 and 1)
		on atomic type 'i' in a spin-polarized calculation.
		Breaks the symmetry and provides a starting point for
		self-consistency. The default value is zero, BUT a value
		MUST be specified for AT LEAST one atomic type in spin
		polarized calculations. Note that if start from zero
		initial magnetization, you will get zero final magnetization
		in any case. If you desire to start from an antiferromagnetic
		state, you may need to define two different atomic species
		corresponding to sublattices of the same atomic type.
		If you fix the magnetization with "nelup/neldw" or with
		"multiplicity" or with "tot_magnetization", you should
		not specify starting_magnetization.
		If you are restarting from a previous run, or from an
		interrupted run, starting_magnetization is ignored.
	    }
	}
	
	vargroup -type REAL {
	    var nelup
	    var neldw 
	    info {
		number of spin-up and spin-down electrons, respectively
		Note that this fixes the final value of the magnetization.
		The sum must yield nelec that must also be specified
		explicitly in this case. Not valid for spin-unpolarized
		or noncollinear calculations, only for LSDA. Obsolescent:
		use multiplicity or tot_magnetization instead.
	    }
	}

	var multiplicity -type INTEGER { 
	    default { 0 [unspecified] }
	    info {
		spin multiplicity (2s+1). 1 is singlet, 2 for doublet etc.
		Note that this fixes the final value of the magnetization.
		if unspecified or a non-zero value is specified in nelup/neldw
		then multiplicity variable is ignored.
		Do not specify both multiplicity and tot_magnetization.
	    }
	}

	var tot_magnetization -type INTEGER { 
	    default { -1 [unspecified] }
	    info {
		majority spin - minority spin (nelup - neldw).
		if unspecified or a non-zero value is specified in nelup/neldw
		then tot_magnetization variable is ignored.
		Do not specify both multiplicity and tot_magnetization.
		YES, there is redundancy! nelup/neldw are enough to specify
		the spin state. However these variables are not very convenient
		and will be eliminated from the input in future versions.
		It is recommended to use either 'multiplicity' or equivalently
		'tot_magnetization' to specify the spin state.
	    }
	}
	
	var ecfixed -type REAL { default { 0.0 }; see { q2sigma } }	    
	var qcutz   -type REAL { default { 0.0 }; see { q2sigma } }	    
	var q2sigma -type REAL { 
	    default { 0.1 } 
	    info { 
		ecfixed, qcutz, q2sigma:  parameters for modified functional to be 
		used in variable-cell molecular dynamics (or in stress calculation).
		"ecfixed" is the value (in Rydberg) of the constant-cutoff;
		"qcutz" and "q2sigma" are the height and the width (in Rydberg)
		of the energy step for reciprocal vectors whose square modulus
		is greater than "ecfixed". In the kinetic energy, G^2 is
		replaced by G^2 + qcutz * (1 + erf ( (G^2 - ecfixed)/q2sigma) )
		See: M. Bernasconi et al, J. Phys. Chem. Solids 56, 501 (1995)
	    }
	}
	
	var xc_type -type CHARACTER {
	    status { presently UNUSED: XC functional is read from PP files }
	    info {
		Exchange-correlation functional		    
	    }
	}

	var lda_plus_u        -type LOGICAL { 
	    default { .FALSE. }
	    see { Hubbard_U } 
	}
	dimension Hubbard_alpha -start 1 -end ntyp -type REAL { 
	    default { 0.D0 for all species }
	    see { Hubbard_U } 
	}
	dimension Hubbard_U -start 1 -end ntyp -type REAL {      
	    default { 0.D0 for all species }
	    status {
		LDA+U works only for a few selected elements. Modify
		PW/set_hubbard_l.f90 and PW/tabd.f90 if you plan to use LDA+U with an
		element that is not configured there.
	    }
	    info {
		lda_plus_u, Hubbard_alpha(i), Hubbard_U(i): parameters for LDA+U
		calculations If lda_plus_u = .TRUE. you must specify, for species i,
		the parameters U and (optionally) alpha of the Hubbard model (both in eV). 
		See: Anisimov, Zaanen, and Andersen, PRB 44, 943 (1991); Anisimov
		et al., PRB 48, 16929 (1993); Liechtenstein, Anisimov, and Zaanen, PRB
		52, R5467 (1994); Cococcioni and de Gironcoli, PRB 71, 035105 (2005).
	    }
	}
	
	var starting_ns_eigenvalue(m,ispin,I) -type REAL { 
	    default { -1.d0 that means NOT SET }
	    info {
		In the first iteration of an LDA+U run it overwrites
		the m-th eigenvalue of the ns occupation matrix for the
		ispin component of atomic species I. Leave unchanged
		eigenvalues that are not set. This is useful to suggest
		the desired orbital occupations when the default choice
		takes another path.
	    }
	}

	var U_projection_type -type CHARACTER {   
	    default { 'atomic' }
	    info {
		Only active when lda_plus_U is .true., specifies the type
		of projector on localized orbital to be used in the LDA+U
		scheme.

		Currently available choices:
		'atomic': use atomic wfc's (as they are) to build the projector

		'ortho-atomic': use Lowdin orthogonalized atomic wfc's
		
		'norm-atomic':  Lowdin normalization of atomic wfc. Keep in mind:
                                atomic wfc are not orthogonalized in this case.
                                This is a "quick and dirty" trick to be used when
                                atomic wfc from the pseudopotential are not
                                normalized (and thus produce occupation whose
                                value exceeds unity). If orthogonalized wfc are
                                not needed always try 'atomic' first.

		'file':         use the information from file "prefix".atwfc that must
                                have been generated previously, for instance by pmw.x
                                (see PP/poormanwannier.f90 for details)

		NB: forces and stress currently implemented only for the
		'atomic' choice.
	    }
	}

	var edir -type INTEGER {
	    info {
		The direction of the electric field or dipole correction is
		parallel to the bg(:,edir) reciprocal lattice vector, so the
		potential is constant in planes defined by FFT grid points;
		edir = 1, 2 or 3. Used only if tefield is .TRUE.
	    }
	}
	
	var emaxpos -type REAL { 
	    default { 0.5D0 }
	    info {
		Position of the maximum of the sawlike potential along crystal
		axis "edir", within the  unit cell (see below), 0 < emaxpos < 1
		Used only if tefield is .TRUE.
	    }
	}
	
	var eopreg -type REAL {
	    default { 0.1D0 }
	    info {
		Zone in the unit cell where the sawlike potential decreases.
		( see below, 0 < eopreg < 1 ). Used only if tefield is .TRUE.
	    }
	}

	var eamp -type REAL { 
	    default { 0.001 a.u. }
	    info {
		Amplitude of the electric field (in a.u. = 51.44 10^10 V/m )
		The sawlike potential increases with slope "eamp" in the
		region from (emaxpos+eopreg-1) to (emaxpos), then decreases
		to 0 until (emaxpos+eopreg), in units of the crystal
		vector "edir". Used only if tefield is .TRUE.
	    }
	}

	dimension angle1 -start 1 -end ntyp -type REAL {
	    info {
		The angle expressed in degrees between the initial
		magnetization and the z-axis. For noncollinear calculations
		only; index i runs over the atom types.
	    }
	}

	dimension angle2 -start 1 -end ntyp -type REAL {
	    info {
		The angle expressed in degrees between the projection
		of the initial magnetization on x-y plane and the x-axis.
		For noncollinear calculations only.
	    }
	}

	var constrained_magnetization -type CHARACTER { 
	    default { 'none' }
	    info {
		Used to perform constrained calculations in magnetic systems.
		Currently available choices:

		'none':  
		         no constraint

		'total': 
		         total magnetization is constrained
                         If nspin=4 (noncolin=.True.) constraint is imposed by
                         adding a penalty functional to the total energy:
		    
		         LAMBDA * SUM_{i} ( magnetization(i) - fixed_magnetization(i) )**2
                        
		         where the sum over i runs over the three components of
                         the magnetization. Lambda is a real number (see below).
                         If nspin=2 constraint is imposed by defining two Fermi
                         energies for spin up and down.
                         Only fixed_magnetization(3) can be defined in this case.
		
		'atomic': 
                         atomic magnetization are constrained to the defined
                         starting magnetization adding a penalty:

		         LAMBDA * SUM_{i,itype} ( magnetic_moment(i,itype) - mcons(i,itype) )**2
                        
		         where i runs over the cartesian components (or just z 
                         in the collinear case) and itype over the types (1-ntype).
                         mcons(:,:) array is defined from starting_magnetization,
                         (and angle1, angle2 in the non-collinear case). lambda is 
                         a real number
		
		'total direction':  
		          the angle theta of the total magnetization
                          with the z axis (theta = fixed_magnetization(3))  
                          is constrained: 

		          LAMBDA * ( magnetization(1) - magnetization(3)*tan(theta) )**2
		
		'atomic direction': 
		          not all the components of the atomic
                          magnetic moment are constrained but only the cosine
                          of angle1, and the penalty functional is:
