electron-phonon of diamond on a fine 444 grid
&inputph
  prefix   = 'diam'
  outdir   = '/group2/jmlim/program/qe-dev-dvscf/tempdir/'
  fildyn   = 'dyn_dir_ahc_fine/diam.dyn'
  tr2_ph   =  1.0d-20
  reduce_io = .true.

  ldisp    = .true.
  nq1      = 4
  nq2      = 4
  nq3      = 4

  ldvscf_interpolate = .true.
  wpot_dir = 'wpot/'

  trans    = .false.
  electron_phonon = 'ahc'
  ahc_nbnd = 8

  ahc_dir = 'ahc_dir_fine'
  skip_upper = .true.
 /
