&input
  prefix = 'diam'
  outdir = '$TMP_DIR/'

  ahc_dir = 'ahc_dir_fine/'
  flvec = 'diam.modes_fine'
  ahc_nbnd = 8
  ahc_nbndskip = 0

  eta_eV = 0.1
  efermi_eV = 16.0
  temp_kelvin = 300.0

  skip_upper = .true.
  skip_dw = .true.

  amass_amu(1) = 12.01078
/
