
 &control
        calculation='raman'
        restart_mode='from_scratch',
        prefix='HF',
        pseudo_dir='./',
 /
 &system
        ibrav=0,
        celldm(1)=10.,
        nat=2, ntyp=2,
        ecutwfc = 80, ecutrho = 320.0
        nspin=1,
 /
 &electrons
        conv_thr = 1.0d-8
        mixing_beta=0.1
 /
 &raman
 	b_length = 0.001,
	lcart = .true
 /
ATOMIC_SPECIES
 F 9.  FPBE.RRKJ3.UPF
 H 1.  HPBE.RRKJ3.UPF
ATOMIC_POSITIONS {bohr}
H 0.0 0.0 0.0 
F 1.732 0.0 0.0
CELL_PARAMETERS {cubic}
1.0 0.0 0.0
0.0 1.0 0.0
0.0 0.0 1.0
K_POINTS {automatic}
1 1 1   1 1 1
