 &control
    calculation     = 'nscf'
    prefix          = 'si'
    pseudo_dir      = './'
    outdir          = './'
 /
 &system
    ibrav           = 2
    celldm(1)       = 10.262
    nat             = 2
    ntyp            = 1
    ecutwfc         = 30
    nbnd            = 8
 /
 &electrons
    diagonalization = 'david'
    mixing_beta     =  0.7
    conv_thr        =  1.0d-11
 /
ATOMIC_SPECIES
  Si  28.0855 Si.pz-vbc.UPF
ATOMIC_POSITIONS alat
  Si   0.00  0.00  0.00
  Si   0.25  0.25  0.25
K_POINTS crystal
64
0.0   0.0   0.0   0.015625
0.0   0.0   0.25   0.015625
0.0   0.0   0.5   0.015625
0.0   0.0   0.75   0.015625
0.0   0.25   0.0   0.015625
0.0   0.25   0.25   0.015625
0.0   0.25   0.5   0.015625
0.0   0.25   0.75   0.015625
0.0   0.5   0.0   0.015625
0.0   0.5   0.25   0.015625
0.0   0.5   0.5   0.015625
0.0   0.5   0.75   0.015625
0.0   0.75   0.0   0.015625
0.0   0.75   0.25   0.015625
0.0   0.75   0.5   0.015625
0.0   0.75   0.75   0.015625
0.25   0.0   0.0   0.015625
0.25   0.0   0.25   0.015625
0.25   0.0   0.5   0.015625
0.25   0.0   0.75   0.015625
0.25   0.25   0.0   0.015625
0.25   0.25   0.25   0.015625
0.25   0.25   0.5   0.015625
0.25   0.25   0.75   0.015625
0.25   0.5   0.0   0.015625
0.25   0.5   0.25   0.015625
0.25   0.5   0.5   0.015625
0.25   0.5   0.75   0.015625
0.25   0.75   0.0   0.015625
0.25   0.75   0.25   0.015625
0.25   0.75   0.5   0.015625
0.25   0.75   0.75   0.015625
0.5   0.0   0.0   0.015625
0.5   0.0   0.25   0.015625
0.5   0.0   0.5   0.015625
0.5   0.0   0.75   0.015625
0.5   0.25   0.0   0.015625
0.5   0.25   0.25   0.015625
0.5   0.25   0.5   0.015625
0.5   0.25   0.75   0.015625
0.5   0.5   0.0   0.015625
0.5   0.5   0.25   0.015625
0.5   0.5   0.5   0.015625
0.5   0.5   0.75   0.015625
0.5   0.75   0.0   0.015625
0.5   0.75   0.25   0.015625
0.5   0.75   0.5   0.015625
0.5   0.75   0.75   0.015625
0.75   0.0   0.0   0.015625
0.75   0.0   0.25   0.015625
0.75   0.0   0.5   0.015625
0.75   0.0   0.75   0.015625
0.75   0.25   0.0   0.015625
0.75   0.25   0.25   0.015625
0.75   0.25   0.5   0.015625
0.75   0.25   0.75   0.015625
0.75   0.5   0.0   0.015625
0.75   0.5   0.25   0.015625
0.75   0.5   0.5   0.015625
0.75   0.5   0.75   0.015625
0.75   0.75   0.0   0.015625
0.75   0.75   0.25   0.015625
0.75   0.75   0.5   0.015625
0.75   0.75   0.75   0.015625
