--
&inputph
  prefix   = 'BAs'
  reduce_io = .true.
  epsil    = .true.
  fildyn   = './BAs_ahc2.dyn'
  ldisp    = .true.
  fildvscf = 'dvscf'
  trans    = .false.
  nq1 = 3
  nq2 = 3
  nq3 = 3
  electron_phonon = 'ahc'
  ahc_nbnd = 9

  ahc_dir = './ahc_dir.2/'

  ldvscf_interpolate = .true.
  wpot_dir = 'wpot/'
  do_long_range     = .true.
  do_charge_neutral = .true.
 /
