&input
  verbosity = 'high'
  prefix = 'BAs'
  outdir   = '.'
  fildyn = 'BAs.dyn'
  fildvscf = 'dvscf'
  wpot_dir = 'wpot/'

  do_long_range = .true.
  do_charge_neutral = .true.
 /

