&input
  fildyn = 'BAs.dyn'
  zasr   = 'crystal'
  flfrc  = 'BAs.fc'
/

