phonons of Ni at X/2
 &inputph
  tr2_ph=1.0d-12,
  prefix='ni_so',
  fildyn='nix.dyn',
  outdir='/u/a/aurru/Documents/Espresso/QEF_fork_Urru/q-e/tempdir/'
 /
0.0 0.0 0.5
