&projwfc
   outdir = '/mnt/c/Users/kawamuura/program/QE/qe_priv/tempdir/'
    prefix='mgb2'
    Emin=-0.3422, 
    Emax=10.0578, 
    DeltaE=0.1
/
2
6 10
