 &control
    calculation = 'relax'
    tprnfor=.true.
    tstress=.true.
 /
 &system
    ibrav=2, celldm(1) =10.20, 
    nat=2, ntyp=1,
    ecutwfc=12.0
    input_dft = 'beef-vdW'
 /
 &electrons
 /
 &ions
 /
ATOMIC_SPECIES
 Si  28.086  Si.pz-vbc.UPF
ATOMIC_POSITIONS {alat}
 Si 0.00 0.00 0.00
 Si 0.26 0.26 0.26
K_POINTS automatic
 4 4 4 1 1 1
