&CONTROL
 calculation='scf'
 tprnfor=.false.
 tstress=.false.
/

&SYSTEM
assume_isolated     = 'mp'
ibrav               = 1
celldm(1)           = 37.794522D0
nat                 = 6
ntyp                = 2
ecutwfc             = 15
vdw_corr            = 'mbd'
ts_vdw_isolated     = .TRUE.
/

&ELECTRONS
 conv_thr=1.0e-8
/

ATOMIC_SPECIES
O 15.999  O.pbe-hgh.UPF
H 1.0079  H.pbe-hgh.UPF

K_POINTS gamma

ATOMIC_POSITIONS angstrom
O        9.297804      9.943940     10.009942
H        8.977807     10.846776      9.988511
H       10.257521     10.042121     10.005221
O       12.220871     10.026717     10.000620
H       12.597498      9.588337     10.766746
H       12.593135      9.550504      9.255219
