 &control
    calculation='nscf'
    prefix='ni',
    pseudo_dir = '/home/giannozz/O-sesame/pseudo//',
    outdir='/home/giannozz/tmp//'
 /
 &system
    ibrav=2, celldm(1) =6.48, nat=1, ntyp=1,
    nspin = 2,  starting_magnetization(1)=0.7,
    ecutwfc = 24.0, ecutrho = 288.0, nbnd=8,
    occupations='tetrahedra'
 /
 &electrons
    conv_thr = 1.0e-8
    mixing_beta = 0.7 
 /
ATOMIC_SPECIES
 Ni 58.69 NiUS.RRKJ3.UPF
ATOMIC_POSITIONS
 Ni 0.0 0.0 0.0
K_POINTS {automatic}
 12 12 12 0 0 0
