 &control
    calculation     = 'nscf'
    prefix          = 'si'
    restart_mode    = 'from_scratch'
    wf_collect      = .true.
    pseudo_dir      = '../../pseudo/'
    outdir          = './'
 /
 &system
    ibrav           = 2
    celldm(1)       = 10.262
    nat             = 2
    ntyp            = 1
    ecutwfc         = 10
    nbnd            = 10
 /
 &electrons
    diagonalization = 'cg'
    mixing_beta     = 0.7
    conv_thr        = 1.0d-13
 /
ATOMIC_SPECIES
  Si  28.0855  Si_r.upf
ATOMIC_POSITIONS alat
  Si   0.00  0.00  0.00
  Si   0.25  0.25  0.25
K_POINTS crystal
216
0.0   0.0   0.0   0.00462962962963
0.0   0.0   0.166666666667   0.00462962962963
0.0   0.0   0.333333333333   0.00462962962963
0.0   0.0   0.5   0.00462962962963
0.0   0.0   0.666666666667   0.00462962962963
0.0   0.0   0.833333333333   0.00462962962963
0.0   0.166666666667   0.0   0.00462962962963
0.0   0.166666666667   0.166666666667   0.00462962962963
0.0   0.166666666667   0.333333333333   0.00462962962963
0.0   0.166666666667   0.5   0.00462962962963
0.0   0.166666666667   0.666666666667   0.00462962962963
0.0   0.166666666667   0.833333333333   0.00462962962963
0.0   0.333333333333   0.0   0.00462962962963
0.0   0.333333333333   0.166666666667   0.00462962962963
0.0   0.333333333333   0.333333333333   0.00462962962963
0.0   0.333333333333   0.5   0.00462962962963
0.0   0.333333333333   0.666666666667   0.00462962962963
0.0   0.333333333333   0.833333333333   0.00462962962963
0.0   0.5   0.0   0.00462962962963
0.0   0.5   0.166666666667   0.00462962962963
0.0   0.5   0.333333333333   0.00462962962963
0.0   0.5   0.5   0.00462962962963
0.0   0.5   0.666666666667   0.00462962962963
0.0   0.5   0.833333333333   0.00462962962963
0.0   0.666666666667   0.0   0.00462962962963
0.0   0.666666666667   0.166666666667   0.00462962962963
0.0   0.666666666667   0.333333333333   0.00462962962963
0.0   0.666666666667   0.5   0.00462962962963
0.0   0.666666666667   0.666666666667   0.00462962962963
0.0   0.666666666667   0.833333333333   0.00462962962963
0.0   0.833333333333   0.0   0.00462962962963
0.0   0.833333333333   0.166666666667   0.00462962962963
0.0   0.833333333333   0.333333333333   0.00462962962963
0.0   0.833333333333   0.5   0.00462962962963
0.0   0.833333333333   0.666666666667   0.00462962962963
0.0   0.833333333333   0.833333333333   0.00462962962963
0.166666666667   0.0   0.0   0.00462962962963
0.166666666667   0.0   0.166666666667   0.00462962962963
0.166666666667   0.0   0.333333333333   0.00462962962963
0.166666666667   0.0   0.5   0.00462962962963
0.166666666667   0.0   0.666666666667   0.00462962962963
0.166666666667   0.0   0.833333333333   0.00462962962963
0.166666666667   0.166666666667   0.0   0.00462962962963
0.166666666667   0.166666666667   0.166666666667   0.00462962962963
0.166666666667   0.166666666667   0.333333333333   0.00462962962963
0.166666666667   0.166666666667   0.5   0.00462962962963
0.166666666667   0.166666666667   0.666666666667   0.00462962962963
0.166666666667   0.166666666667   0.833333333333   0.00462962962963
0.166666666667   0.333333333333   0.0   0.00462962962963
0.166666666667   0.333333333333   0.166666666667   0.00462962962963
0.166666666667   0.333333333333   0.333333333333   0.00462962962963
0.166666666667   0.333333333333   0.5   0.00462962962963
0.166666666667   0.333333333333   0.666666666667   0.00462962962963
0.166666666667   0.333333333333   0.833333333333   0.00462962962963
0.166666666667   0.5   0.0   0.00462962962963
0.166666666667   0.5   0.166666666667   0.00462962962963
0.166666666667   0.5   0.333333333333   0.00462962962963
0.166666666667   0.5   0.5   0.00462962962963
0.166666666667   0.5   0.666666666667   0.00462962962963
0.166666666667   0.5   0.833333333333   0.00462962962963
0.166666666667   0.666666666667   0.0   0.00462962962963
0.166666666667   0.666666666667   0.166666666667   0.00462962962963
0.166666666667   0.666666666667   0.333333333333   0.00462962962963
0.166666666667   0.666666666667   0.5   0.00462962962963
0.166666666667   0.666666666667   0.666666666667   0.00462962962963
0.166666666667   0.666666666667   0.833333333333   0.00462962962963
0.166666666667   0.833333333333   0.0   0.00462962962963
0.166666666667   0.833333333333   0.166666666667   0.00462962962963
0.166666666667   0.833333333333   0.333333333333   0.00462962962963
0.166666666667   0.833333333333   0.5   0.00462962962963
0.166666666667   0.833333333333   0.666666666667   0.00462962962963
0.166666666667   0.833333333333   0.833333333333   0.00462962962963
0.333333333333   0.0   0.0   0.00462962962963
0.333333333333   0.0   0.166666666667   0.00462962962963
0.333333333333   0.0   0.333333333333   0.00462962962963
0.333333333333   0.0   0.5   0.00462962962963
0.333333333333   0.0   0.666666666667   0.00462962962963
0.333333333333   0.0   0.833333333333   0.00462962962963
0.333333333333   0.166666666667   0.0   0.00462962962963
0.333333333333   0.166666666667   0.166666666667   0.00462962962963
0.333333333333   0.166666666667   0.333333333333   0.00462962962963
0.333333333333   0.166666666667   0.5   0.00462962962963
0.333333333333   0.166666666667   0.666666666667   0.00462962962963
0.333333333333   0.166666666667   0.833333333333   0.00462962962963
0.333333333333   0.333333333333   0.0   0.00462962962963
0.333333333333   0.333333333333   0.166666666667   0.00462962962963
0.333333333333   0.333333333333   0.333333333333   0.00462962962963
0.333333333333   0.333333333333   0.5   0.00462962962963
0.333333333333   0.333333333333   0.666666666667   0.00462962962963
0.333333333333   0.333333333333   0.833333333333   0.00462962962963
0.333333333333   0.5   0.0   0.00462962962963
0.333333333333   0.5   0.166666666667   0.00462962962963
0.333333333333   0.5   0.333333333333   0.00462962962963
0.333333333333   0.5   0.5   0.00462962962963
0.333333333333   0.5   0.666666666667   0.00462962962963
0.333333333333   0.5   0.833333333333   0.00462962962963
0.333333333333   0.666666666667   0.0   0.00462962962963
0.333333333333   0.666666666667   0.166666666667   0.00462962962963
0.333333333333   0.666666666667   0.333333333333   0.00462962962963
0.333333333333   0.666666666667   0.5   0.00462962962963
0.333333333333   0.666666666667   0.666666666667   0.00462962962963
0.333333333333   0.666666666667   0.833333333333   0.00462962962963
0.333333333333   0.833333333333   0.0   0.00462962962963
0.333333333333   0.833333333333   0.166666666667   0.00462962962963
0.333333333333   0.833333333333   0.333333333333   0.00462962962963
0.333333333333   0.833333333333   0.5   0.00462962962963
0.333333333333   0.833333333333   0.666666666667   0.00462962962963
0.333333333333   0.833333333333   0.833333333333   0.00462962962963
0.5   0.0   0.0   0.00462962962963
0.5   0.0   0.166666666667   0.00462962962963
0.5   0.0   0.333333333333   0.00462962962963
0.5   0.0   0.5   0.00462962962963
0.5   0.0   0.666666666667   0.00462962962963
0.5   0.0   0.833333333333   0.00462962962963
0.5   0.166666666667   0.0   0.00462962962963
0.5   0.166666666667   0.166666666667   0.00462962962963
0.5   0.166666666667   0.333333333333   0.00462962962963
0.5   0.166666666667   0.5   0.00462962962963
0.5   0.166666666667   0.666666666667   0.00462962962963
0.5   0.166666666667   0.833333333333   0.00462962962963
0.5   0.333333333333   0.0   0.00462962962963
0.5   0.333333333333   0.166666666667   0.00462962962963
0.5   0.333333333333   0.333333333333   0.00462962962963
0.5   0.333333333333   0.5   0.00462962962963
0.5   0.333333333333   0.666666666667   0.00462962962963
0.5   0.333333333333   0.833333333333   0.00462962962963
0.5   0.5   0.0   0.00462962962963
0.5   0.5   0.166666666667   0.00462962962963
0.5   0.5   0.333333333333   0.00462962962963
0.5   0.5   0.5   0.00462962962963
0.5   0.5   0.666666666667   0.00462962962963
0.5   0.5   0.833333333333   0.00462962962963
0.5   0.666666666667   0.0   0.00462962962963
0.5   0.666666666667   0.166666666667   0.00462962962963
0.5   0.666666666667   0.333333333333   0.00462962962963
0.5   0.666666666667   0.5   0.00462962962963
0.5   0.666666666667   0.666666666667   0.00462962962963
0.5   0.666666666667   0.833333333333   0.00462962962963
0.5   0.833333333333   0.0   0.00462962962963
0.5   0.833333333333   0.166666666667   0.00462962962963
0.5   0.833333333333   0.333333333333   0.00462962962963
0.5   0.833333333333   0.5   0.00462962962963
0.5   0.833333333333   0.666666666667   0.00462962962963
0.5   0.833333333333   0.833333333333   0.00462962962963
0.666666666667   0.0   0.0   0.00462962962963
0.666666666667   0.0   0.166666666667   0.00462962962963
0.666666666667   0.0   0.333333333333   0.00462962962963
0.666666666667   0.0   0.5   0.00462962962963
0.666666666667   0.0   0.666666666667   0.00462962962963
0.666666666667   0.0   0.833333333333   0.00462962962963
0.666666666667   0.166666666667   0.0   0.00462962962963
0.666666666667   0.166666666667   0.166666666667   0.00462962962963
0.666666666667   0.166666666667   0.333333333333   0.00462962962963
0.666666666667   0.166666666667   0.5   0.00462962962963
0.666666666667   0.166666666667   0.666666666667   0.00462962962963
0.666666666667   0.166666666667   0.833333333333   0.00462962962963
0.666666666667   0.333333333333   0.0   0.00462962962963
0.666666666667   0.333333333333   0.166666666667   0.00462962962963
0.666666666667   0.333333333333   0.333333333333   0.00462962962963
0.666666666667   0.333333333333   0.5   0.00462962962963
0.666666666667   0.333333333333   0.666666666667   0.00462962962963
0.666666666667   0.333333333333   0.833333333333   0.00462962962963
0.666666666667   0.5   0.0   0.00462962962963
0.666666666667   0.5   0.166666666667   0.00462962962963
0.666666666667   0.5   0.333333333333   0.00462962962963
0.666666666667   0.5   0.5   0.00462962962963
0.666666666667   0.5   0.666666666667   0.00462962962963
0.666666666667   0.5   0.833333333333   0.00462962962963
0.666666666667   0.666666666667   0.0   0.00462962962963
0.666666666667   0.666666666667   0.166666666667   0.00462962962963
0.666666666667   0.666666666667   0.333333333333   0.00462962962963
0.666666666667   0.666666666667   0.5   0.00462962962963
0.666666666667   0.666666666667   0.666666666667   0.00462962962963
0.666666666667   0.666666666667   0.833333333333   0.00462962962963
0.666666666667   0.833333333333   0.0   0.00462962962963
0.666666666667   0.833333333333   0.166666666667   0.00462962962963
0.666666666667   0.833333333333   0.333333333333   0.00462962962963
0.666666666667   0.833333333333   0.5   0.00462962962963
0.666666666667   0.833333333333   0.666666666667   0.00462962962963
0.666666666667   0.833333333333   0.833333333333   0.00462962962963
0.833333333333   0.0   0.0   0.00462962962963
0.833333333333   0.0   0.166666666667   0.00462962962963
0.833333333333   0.0   0.333333333333   0.00462962962963
0.833333333333   0.0   0.5   0.00462962962963
0.833333333333   0.0   0.666666666667   0.00462962962963
0.833333333333   0.0   0.833333333333   0.00462962962963
0.833333333333   0.166666666667   0.0   0.00462962962963
0.833333333333   0.166666666667   0.166666666667   0.00462962962963
0.833333333333   0.166666666667   0.333333333333   0.00462962962963
0.833333333333   0.166666666667   0.5   0.00462962962963
0.833333333333   0.166666666667   0.666666666667   0.00462962962963
0.833333333333   0.166666666667   0.833333333333   0.00462962962963
0.833333333333   0.333333333333   0.0   0.00462962962963
0.833333333333   0.333333333333   0.166666666667   0.00462962962963
0.833333333333   0.333333333333   0.333333333333   0.00462962962963
0.833333333333   0.333333333333   0.5   0.00462962962963
0.833333333333   0.333333333333   0.666666666667   0.00462962962963
0.833333333333   0.333333333333   0.833333333333   0.00462962962963
0.833333333333   0.5   0.0   0.00462962962963
0.833333333333   0.5   0.166666666667   0.00462962962963
0.833333333333   0.5   0.333333333333   0.00462962962963
0.833333333333   0.5   0.5   0.00462962962963
0.833333333333   0.5   0.666666666667   0.00462962962963
0.833333333333   0.5   0.833333333333   0.00462962962963
0.833333333333   0.666666666667   0.0   0.00462962962963
0.833333333333   0.666666666667   0.166666666667   0.00462962962963
0.833333333333   0.666666666667   0.333333333333   0.00462962962963
0.833333333333   0.666666666667   0.5   0.00462962962963
0.833333333333   0.666666666667   0.666666666667   0.00462962962963
0.833333333333   0.666666666667   0.833333333333   0.00462962962963
0.833333333333   0.833333333333   0.0   0.00462962962963
0.833333333333   0.833333333333   0.166666666667   0.00462962962963
0.833333333333   0.833333333333   0.333333333333   0.00462962962963
0.833333333333   0.833333333333   0.5   0.00462962962963
0.833333333333   0.833333333333   0.666666666667   0.00462962962963
0.833333333333   0.833333333333   0.833333333333   0.00462962962963

