 &control
    calculation = 'nscf'
    verbosity='high'
 /
 &system
    ibrav=2, celldm(1) =10.20, 
    nat=2, ntyp=1,
    ecutwfc=42.0,
    nbnd=12,
    n_proj=4,
    input_dft='pbe0',
 /
 &electrons
    diagonalization='david',
    conv_thr=1.D-10
 /
ATOMIC_SPECIES
 Si  28.086  Si.pz-vbc.UPF
ATOMIC_POSITIONS (alat)
 Si 0.00 0.00 0.00
 Si 0.25 0.25 0.25
K_POINTS (automatic)
2 2 2 1 1 1 
