 &input
        title='O',
        zed=8.0,
        lsd=1,
        rel=0,
        beta=0.5,
        iswitch=2,
        dft='PBE',
        prefix='tmp/ld1'
        nld=0
 /
8
1S  1  0  1.0  1
2S  2  0  1.0  1
2P  2  1  2.0  1
3D  3  2 -1.0  1
1S  1  0  1.0  2
2S  2  0  1.0  2
2P  2  1  2.0  2
3D  3  2 -1.0  2
 &test
  file_pseudo='O.PBE.RRKJ3.UPF',
  nconf=3,
 / 
4
2S  1  0  1.00  0.00  1.40  1.60  1
2P  2  1  2.00  0.00  1.40  1.60  1
2S  1  0  1.00  0.00  1.40  1.60  2
2P  2  1  2.00  0.00  1.40  1.60  2
4
2S  1  0  0.00  0.00  1.40  1.60  1
2P  2  1  3.00  0.00  1.40  1.60  1
2S  1  0  0.00  0.00  1.40  1.60  2
2P  2  1  3.00  0.00  1.40  1.60  2
4
2S  1  0  1.00  0.00  1.40  1.60  1
2P  2  1  1.00  0.00  1.40  1.60  1
2S  1  0  1.00  0.00  1.40  1.60  2
2P  2  1  3.00  0.00  1.40  1.60  2
