Input data format: { } = optional, [ ] = it depends

All quantities whose dimensions are not explicitly specified are in
RYDBERG ATOMIC UNITS

===============================================================================
&CONTROL
  ...
/
&SYSTEM
 ...
/
&ELECTRONS
...
/
[ &IONS
  ...
 / ]
[ &CELL
  ...
 / ]
[ &PHONON
  ...
 / ]
ATOMIC_SPECIES
 X  Mass_X  PseudoPot_X
 Y  Mass_Y  PseudoPot_Y
 Z  Mass_Z  PseudoPot_Z
ATOMIC_POSITIONS { alat | bohr | crystal | angstrom }
in all cases except calculation = 'neb' or 'smd' :
  X 0.0  0.0  0.0  {if_pos(1) if_pos(2) if_pos(3)}
  Y 0.5  0.0  0.0
  Z O.0  0.2  0.2
if calculation = 'neb' .OR. 'smd' :
  first_image
  X 0.0  0.0  0.0  {if_pos(1) if_pos(2) if_pos(3)}
  Y 0.5  0.0  0.0
  Z O.0  0.2  0.2
  { intermediate_image 1
    X 0.0  0.0  0.0
    Y 0.9  0.0  0.0
    Z O.0  0.2  0.2
    intermediate_image ...
    X 0.0  0.0  0.0
    Y 0.9  0.0  0.0
    Z O.0  0.2  0.2 }
  last_image
  X 0.0  0.0  0.0
  Y 0.7  0.0  0.0
  Z O.0  0.5  0.2
K_POINTS { tpiba | automatic | crystal | gamma }
if (gamma)
   nothing to read
if (automatic)
   nk1, nk2, nk3, k1, k2, k3
if (not automatic)
   nks
   xk_x, xk_y, xk_z,  wk
[ CELL_PARAMETERS { cubic | hexagonal }
   a(1,1) a(2,1) a(3,1)
   a(1,2) a(2,2) a(3,2)
   a(1,3) a(2,3) a(3,3) ]
[ OCCUPATIONS
   f_inp(1,1)  f_inp(2,1)  f_inp(3,1) ... f_inp(10,1)
   f_inp(11,1) f_inp(12,1) ... f_inp(nbnd,1)
 [ f_inp(1,2)  f_inp(2,2)  f_inp(3,2) ... f_inp(10,2)
   f_inp(11,2) f_inp(12,2) ... f_inp(nbnd,2) ] ]
[ CLIMBING_IMAGES
   list of images, separated by a comma ]
[ CONSTRAINTS
   nconstr   constr_tol
   constr_type(.)   constr(1,.)   constr(2,.) { constr_target(.) } ]
[ COLLECTIVE_VARS
   nconstr   constr_tol
   constr_type(.)   constr(1,.)   constr(2,.) { constr_target(.) } ]
===============================================================================
NAMELIST &CONTROL

calculation    CHARACTER
               a string describing the task to be performed:
               'scf', 'nscf', 'bands', 'phonon', 'relax', 'md',
	       'vc-relax', 'vc-md', 'neb', 'smd', 'metadyn'
               (vc = variable-cell). Default: 'scf'

title          CHARACTER
               reprinted on output. Default: ' '

verbosity      CHARACTER
               'high' | 'default' | 'low' | 'minimal'

restart_mode   CHARACTER
               'from_scratch'  : from scratch ( default )
	                         NEB and SMD only: the starting path is obtained
                                 with a linear interpolation between the images
                                 specified in the ATOMIC_POSITIONS card.
				 Note that in the linear interpolation
                                 periodic boundary conditions ARE NON USED.
               'restart'       : from previous interrupted run

wf_collect     LOGICAL ( default = .FALSE. )
               This flag controls the way wavefunctions are stored to disk :
               .TRUE.  collect wavefunctions from all processors and store
                       them into the output data directory outdir/prefix.save
               .FALSE. do not collect wavefunctions, leave them in temporary
                       local files (one per processor). The resulting format
                       will be readable only by jobs running on the same
                       number of processors and pools. Useful if you do not
                       need the wavefunction or if you want to reduce the I/O
                       or the disk occupancy.

nstep          INTEGER
               number of ionic + electronic steps
               default: 1 if calculation = 'scf', 'nscf', 'bands'
	                0 if calculation = 'neb', 'smd'
                       50 for the other cases

iprint         INTEGER
               band energies are written every iprint iterations
               default: write only at convergence

tstress        LOGICAL
               calculate stress. Set to .TRUE. if calculation='vc-md'

tprnfor        LOGICAL
               print forces. Set to .TRUE. if calculation='relax','md','vc-md'

dt             REAL ( default = 20.D0 )
               time step for molecular dynamics, in Rydberg atomic units
               (1 a.u.=4.8378 * 10^-17 s : beware, CP and FPMD codes use
               Hartree atomic units, half that much!!!)

outdir         CHARACTER ( default = value of the ESPRESSO_TMPDIR environment
               variable if set; current directory ('./') otherwise )
               input, temporary, output files are found in this directory,
               see also 'wfcdir'

wfcdir         CHARACTER ( by default same as outdir )
               this directory specifies where to store files generated by
               each processor (*.wfc{N}, *.igk{N}, etc.). The idea here is
               to be able to separately store the largest files, while
               the files necessary for restarting still go into 'outdir'
               (for now only works for stand alone PW )

prefix         CHARACTER ( default = 'pwscf' )
               prepended to input/output filenames:
               prefix.wfc, prefix.rho, etc.

lkpoint_dir    LOGICAL (default=.true.)
               If .false. it does not open a subdirectory for each k_point 
               in the prefix.save directory. 

max_seconds    REAL ( default : 1.D+7, or 150 days, i.e. no time limit )
               jobs stops after max_seconds CPU time

etot_conv_thr  REAL ( default = 1.0D-4 )
               convergence threshold on total energy (a.u) for ionic
               minimization: the convergence criterion is satisfied
               when the total energy changes less than etot_conv_thr
               between two consecutive scf steps.
               See also forc_conv_thr - both criteria must be satisfied

forc_conv_thr  REAL ( default = 1.0D-3 )
               convergence threshold on forces (a.u) for ionic
               minimization: the convergence criterion is satisfied
               when all components of all forces are smaller than
               forc_conv_thr.
               See also etot_conv_thr - both criteria must be satisfied

disk_io        CHARACTER ( default='default')
               Specifies the amount of disk I/O activity
               'high':    save all data at each SCF step
               'default': save wavefunctions at each SCF step unless
                          there is a single k-point per process
               'low' :    store wfc in memory, save only at the end
               'none':    do not save wfc, not even at the end
               If restarting from an interrupted calculation, the code
               will try to figure out what is available on disk. The
               more you write, the more complete the restart will be.

pseudo_dir     CHARACTER ( default = value of the $ESPRESSO_PSEUDO environment
               variable if set; '$HOME/espresso/pseudo/' otherwise )
               directory containing pseudopotential files

tefield        LOGICAL ( default = .FALSE. )
               If .TRUE. a sawlike potential simulating an electric field
               is added to the bare ionic potential. See variables
               edir, eamp, emaxprog, eopreg for the form and size of
               the added potential.

dipfield       LOGICAL ( default = .FALSE. )
               If .TRUE. and tefield=.TRUE. a dipole correction is also
               added to the bare ionic potential - implements the recipe
               of L. Bengtsson, PRB 59, 12303 (1999). See variables edir,
               emaxprog, eopreg for the form of the correction, that must
               be used only in a slab geometry, for surface calculations,
               with the discontinuity in the empty space

lelfield       LOGICAL ( default = .FALSE. )
               If .TRUE. a homogeneous finite electric field described
               through the modern theory of the polarization is applied.
               This is different from "tefield=.true." !

lberry         LOGICAL  (default =  .FALSE.)
               If .TRUE. perform a Berry phase calculation
               See the header of PW/bp_c_phase.f90 for documentation

gdir           INTEGER
               For Berry phase calculation: direction of the k-point
               strings in reciprocal space. Allowed values: 1, 2, 3
               1=first, 2=second, 3=third reciprocal lattice vector
               For calculations with finite electric fields
               (lelfield==.true.), gdir is the direction of the field

nppstr         INTEGER
               For Berry phase calculation: number of k-points to be
               calculated along each symmetry-reduced string
               The same for calculation with finite electric fields
               (lelfield==.true.)

nberrycyc      INTEGER ( default = 1 )
               In the case of a finite electric field  ( lelfield == .TRUE. )
               it defines the number of iterations for converging the
               wavefunctions in the electric field Hamiltonian, for each
               external iteration on the charge density

===============================================================================
NAMELIST &SYSTEM

ibrav          INTEGER
               bravais-lattice index - see at the end of this file

celldm(i)      REAL, DIMENSION(6)
               crystallographic constants - see at the end of this file
               alat = celldm(1) is the lattice parameter "a" (in BOHR)
               only needed celldm (depending on ibrav) must be specified
               If ibrav=0 only alat = celldm(1) is used (if present)

a, b, c, cosab, cosac, cosbc:
               REAL
	       traditional crystallographic constants (a,b,c in ANGSTROM,
               cosab = cosine of the angle between axis a and b
               specify either these OR celldm but NOT both
               If ibrav=0 only alat = a is used (if present)

nat            INTEGER
                number of atoms in the unit cell - must be specified

ntyp           INTEGER
               number of types of atoms in the unit cell - must be specified

nbnd           INTEGER
               number of electronic states (bands) to be calculated.
               Default: for an insulator, nbnd = (number of valence bands)
                        (nbnd=nelec/2, see below for nelec)
                        for a metal, 20% more (minimum 4 more)
               Note that in spin-polarized calculations the number of
               k-point, not the number of bands per k-point, is doubled

nelec          REAL
               number of electron in the unit cell
               (may be noninteger if you wish)
               Default: the same as ionic charge (neutral cell)
               A compensating jellium background is inserted
               to remove divergences if the cell is not neutral

tot_charge     INTEGER ( default = 0 )
               total system charge. Used only if nelec is unspecified,
               otherwise it is ignored.

ecutwfc        REAL
               kinetic energy cutoff (Ry) for wavefunctions
               (must be specified)

ecutrho        REAL ( default = 4 * ecutwfc )
               kinetic energy cutoff (Ry) for charge density and potential
               May be larger ( for ultrasoft PP ) or somewhat smaller
               ( but not much smaller ) than the default value. Note that
               if you have norm-conserving PP only, setting it to a larger
               value than the default is a waste of time.

nr1,nr2,nr3    INTEGER
               three-dimensional FFT mesh (hard grid) for charge
               density (and scf potential). If not specified
               the grid is calculated based on the cutoff for
               charge density (see also "ecutrho")

nr1s,nr2s,nr3s INTEGER
               three-dimensional mesh for wavefunction FFT and for the smooth
               part of charge density ( smooth grid ).
               Coincides with nr1, nr2, nr3 if ecutrho = 4 * ecutwfc ( default )

nosym          LOGICAL ( default = .FALSE. )
               if (.TRUE.) symmetry is not used. Note that a k-point grid
               provided in input is used "as is"; an automatically generated
               k-point grid will contain only points in the irreducible BZ
               of the lattice.  Use with care in low-symmetry large cells
               if you cannot afford a k-point grid with the correct symmetry.

occupations    CHARACTER
               'smearing':     gaussian smearing for metals
                               requires a value for degauss
               'tetrahedra' :  for metals and DOS calculation
                               (see PRB49, 16223 (1994))
                               Requires uniform grid of k-points,
                               automatically generated (see below)
                               Not suitable (because not variational) for
                               force/optimization/dynamics calculations
               'fixed' :       for insulators with a gap
               'from_input' :  The occupation are read from input file.
                               Presently works only with one k-point
                               (LSDA allowed).

degauss        REAL ( default = 0.D0 Ry )
               value of the gaussian spreading (Ry) for brillouin-zone
               integration in metals.

smearing       CHARACTER
               'gaussian', 'gauss':
                    ordinary Gaussian spreading (Default)
               'methfessel-paxton', 'm-p', 'mp':
                    Methfessel-Paxton first-order spreading
                    (see PRB 40, 3616 (1989)).
               'marzari-vanderbilt', 'cold', 'm-v', 'mv':
                    Marzari-Vanderbilt cold smearing
                    (see PRL 82, 3296 (1999))
               'fermi-dirac', 'f-d', 'fd':
                    smearing with Fermi-Dirac function

nspin          INTEGER
               nspin = 1 :   non-polarized calculation (default)
               nspin = 2 :  spin-polarized calculation, LSDA
                            (magnetization along z axis)
               nspin = 4 :  spin-polarized calculation, noncollinear
                            (magnetization in generic direction)
                            DO NOT specify nspin in this case;
                            specify "noncolin=.TRUE." instead

noncolin       LOGICAL
               if .true. the program will perform a noncollinear calculation.
               DEFAULT: .false.

starting_magnetization(i)
               REAL
               starting spin polarization (values between -1 and 1)
               on atomic type 'i' in a spin-polarized calculation.
               Breaks the symmetry and provides a starting point for
               self-consistency. The default value is zero, BUT a value
               MUST be specified for AT LEAST one atomic type in spin
               polarized calculations. Note that if start from zero
               initial magnetization, you will get zero final magnetization
               in any case. If you desire to start from an antiferromagnetic
               state, you may need to define two different atomic species
               corresponding to sublattices of the same atomic type.
               If you fix the magnetization with "nelup/neldw" or with
               "multiplicity" or with "tot_magnetization", you should
               not specify starting_magnetization.
               If you are restarting from a previous run, or from an
               interrupted run, starting_magnetization is ignored.

nelup, neldw   REAL
               number of spin-up and spin-down electrons, respectively
               Note that this fixes the final value of the magnetization.
               The sum must yield nelec that must also be specified
               explicitly in this case. Not valid for spin-unpolarized
               or noncollinear calculations, only for LSDA. Obsolescent:
               use multiplicity or tot_magnetization instead.

multiplicity   INTEGER ( default = 0 [unspecified] )
               spin multiplicity (2s+1). 1 is singlet, 2 for doublet etc.
               Note that this fixes the final value of the magnetization.
               if unspecified or a non-zero value is specified in nelup/neldw
               then multiplicity variable is ignored.
               Do not specify both multiplicity and tot_magnetization.

tot_magnetization INTEGER ( default = -1 [unspecified] )
               majority spin - minority spin (nelup - neldw).
               if unspecified or a non-zero value is specified in nelup/neldw
               then tot_magnetization variable is ignored.
               Do not specify both multiplicity and tot_magnetization.
               YES, there is redundancy! nelup/neldw are enough to specify
               the spin state. However these variables are not very convenient
               and will be eliminated from the input in future versions.
               It is recommended to use either 'multiplicity' or equivalently
               'tot_magnetization' to specify the spin state.

ecfixed        REAL ( default = 0.0 )
qcutz          REAL ( default = 0.0 )
q2sigma        REAL ( default = 0.1 )
               parameters for modified functional to be used in
               variable-cell molecular dynamics (or in stress calculation).
               "ecfixed" is the value (in Rydberg) of the constant-cutoff;
               "qcutz" and "q2sigma" are the height and the width (in Rydberg)
               of the energy step for reciprocal vectors whose square modulus
               is greater than "ecfixed". In the kinetic energy, G^2 is
               replaced by G^2 + qcutz * (1 + erf ( (G^2 - ecfixed)/q2sigma) )
               See: M. Bernasconi et al, J. Phys. Chem. Solids 56, 501 (1995)

xc_type        CHARACTER
               Exchange-correlation functional
               Presently unused: XC functional is read from PP files

lda_plus_u        LOGICAL   ( default = .FALSE.)
Hubbard_U(I)      REAL      ( default = 0.D0 for all species)
Hubbard_alpha(I)  REAL      ( default = 0.D0 for all species)
               parameters for LDA+U calculations
               If lda_plus_u = .TRUE. you must specify, for species I,
               the parameters U and (optionally) alpha of the Hubbard
               model (both in eV). See:
               Anisimov, Zaanen, and Andersen, PRB 44, 943 (1991);
               Anisimov et al., PRB 48, 16929 (1993);
               Liechtenstein, Anisimov, and Zaanen, PRB 52, R5467 (1994);
               Cococcioni and de Gironcoli, PRB 71, 035105 (2005).
               IMPORTANT: LDA+U works only for a few selected elements.
               Modify PW/set_hubbard_l.f90 and PW/tabd.f90 if you plan to
               use LDA+U with an element that is not configured there.

starting_ns_eigenvalue(m,ispin,I) REAL (default = -1.d0 that means NOT SET)
               In the first iteration of an LDA+U run it overwrites
               the m-th eigenvalue of the ns occupation matrix for the
               ispin component of atomic species I. Leave unchanged
               eigenvalues that are not set. This is useful to suggest
               the desired orbital occupations when the default choice
               takes another path.

U_projection_type   CHARACTER   (default='atomic')
               Only active when lda_plus_U is .true., specifies the type
               of projector on localized orbital to be used in the LDA+U
               scheme.
               Currently available choices:
               'atomic': use atomic wfc's (as they are) to build the projector
               'ortho-atomic': use Lowdin orthogonalized atomic wfc's
               'norm-atomic': Lowdin normalization of atomic wfc. Keep in mind:
                              atomic wfc are not orthogonalized in this case.
                              This is a "quick and dirty" trick to be used when
                              atomic wfc from the pseudopotential are not
                              normalized (and thus produce occupation whose
                              value exceeds unity). If orthogonalized wfc are
                              not needed always try 'atomic' first.
               'file': use the information from file "prefix".atwfc that must
                       have been generated previously, for instance by pmw.x
                       (see PP/poormanwannier.f90 for details)
               NB: forces and stress currently implemented only for the
                   'atomic' choice.

edir           INTEGER
               The direction of the electric field or dipole correction is
               parallel to the bg(:,edir) reciprocal lattice vector, so the
               potential is constant in planes defined by FFT grid points;
               edir = 1, 2 or 3. Used only if tefield is .TRUE.

emaxpos        REAL ( default = 0.5D0 )
               Position of the maximum of the sawlike potential along crystal
               axis "edir", within the  unit cell (see below), 0 < emaxpos < 1
               Used only if tefield is .TRUE.

eopreg         REAL( default = 0.1D0 )
               Zone in the unit cell where the sawlike potential decreases.
               ( see below, 0 < eopreg < 1 ). Used only if tefield is .TRUE.

eamp           REAL ( default = 0.001 a.u. )
               Amplitude of the electric field (in a.u. = 51.44 10^10 V/m )
               The sawlike potential increases with slope "eamp" in the
               region from (emaxpos+eopreg-1) to (emaxpos), then decreases
               to 0 until (emaxpos+eopreg), in units of the crystal
               vector "edir". Used only if tefield is .TRUE.

angle1(i)      REAL
               The angle expressed in degrees between the initial
               magnetization and the z-axis. For noncollinear calculations
               only. I runs over the atom types.

angle2(i)      REAL
               The angle expressed in degrees between the projection
               of the initial magnetization on x-y plane and the x-axis.
               For noncollinear calculations only.

constrained_magnetization CHARACTER ( defalt = 'none' )
               Used to perform constrained calculations in magnetic systems
               Currently available choices:
               `none` : no constraint
               `total`: total magnetization is constrained
                        If nspin=4 (noncolin=.True.) constraint is imposed by
                        adding a penalty functional to the total energy:
     - LAMBDA * SUM_{i} ( magnetization(i) - fixed_magnetization(i) )**2
                        where the sum over i runs over the three components of
                        the magnetization. Lambda is a real number (see below).
                        If nspin=2 constraint is imposed by defining two Fermi
                        energies for spin up and down.
                        Only fixed_magnetization(3) can be defined in this case.
               `atomic`: atomic magnetization are constrained to the defined
                        starting magnetization adding a penalty
     - LAMBDA * SUM_{i,itype} ( magnetic_moment(i,itype) - mcons(i,itype) )**2
                        where i runs over the cartesian components (or just z 
                        in the collinear case) and itype over the types (1-ntype).
                        mcons(:,:) array is defined from starting_magnetization,
                        (and angle1, angle2 in the non-collinear case). lambda is 
                        a real number
               `total direction`:  the angle theta of the total magnetization
                        with the z axis (theta = fixed_magnetization(3))  
                        is constrained: 
     - LAMBDA * ( magnetization(1) - magnetization(3)*tan(theta) )**2
               `atomic direction`: not all the components of the atomic
                        magnetic moment are constrained but only the cosine
                        of angle1, and the penalty functional is:
     - LAMBDA * SUM_{itype} ( mag_mom(3,itype)/mag_mom_tot - cos(angle1(ityp) )**2

fixed_magnetization(3)  REAL (default 0.d0)
               value of the total magnetization to be maintained fixed when
               constrained_magnetization='total'

B_field(3)     REAL (default = 0.d0)
               A fixed magnetic field defined by the vector B_field is added
               to the exchange and correlation magnetic field.
               The three components of the magnetic field are given in Ry.
               Only B_field(3) can be used if nspin=2.

               In all calculations with a finite magnetic field,
               we print the total energy WITHOUT the B dot M term.
               In the calculations with the penalty functional we write
               only the total energy, NOT the penalty functional.

lambda         REAL
               parameter used for constrained_magnetization calculations
               NB: LAMBDA is reduced in the first iterations and is increased
                   slowly up to the input value.

report         INTEGER
               It's the number of iterations after which the program
               write all the atomic magnetic moments.

lspinorb       LOGICAL
               if .TRUE. the noncollinear code can use a pseudopotential with
               spin-orbit.

assume_isolated
               LOGICAL ( default = .FALSE. )
               if .TRUE. the system is assumed to be isolated (a molecule or cluster
               in a supercell) and the Makov-Payne correction to the total energy is
               computed. An estimate of the vacuum level is also calculated so that
               eigenvalues can be properly aligned.

===============================================================================
NAMELIST &ELECTRONS

electron_maxstep
               INTEGER ( default = 100 )
               maximum number of iterations in a scf step

conv_thr       REAL  ( default = 1.D-6 )
               Convergence threshold for selfconsistency:
               estimated energy error < conv_thr

mixing_mode    CHARACTER
               'plain' :    charge density Broyden mixing ( default )
               'TF' :       as above, with simple Thomas-Fermi screening
                            (for highly homogeneous systems)
               'local-TF':  as above, with local-density-dependent TF screening
                            (for highly inhomogeneous systems)

mixing_beta    REAL ( default = 0.7D0 )
               mixing factor for self-consistency

mixing_ndim    INTEGER ( default = 8)
               number of iterations used in mixing scheme

mixing_fixed_ns
               INTEGER ( default = 0 )
               For LDA+U : number of iterations with fixed ns ( ns is the
               atomic density appearing in the Hubbard term )

diagonalization
               CHARACTER
               'david':  Davidson iterative diagonalization with overlap matrix
                         (default). Fast, may in some rare cases fail.
               'cg' :    conjugate-gradient-like band-by-band diagonalization
                         Typically slower than 'david' but it uses less memory
                         and is more robust (it fails very seldom)
               'david+para': like david, but use parallel diagonalization,
                         after testing if it is convenient (for speed), 
                         iteration loop use replicated data. Obsolescent.
               'david+distpara': like david but use fully distributed memory 
                         iteration loop. Allocated memory scale down with the 
                         number of procs. Procs involved in diagonalization can 
                         be changed with input parameter "ortho_para".  
                         On multi core/CPUs often it is convenient to let only 
                         one core per CPU to work on liner algebra.

ortho_para     
               INTEGER ( default = 0 )
               meaningful only if diagonalization = 'david+para' or 
               diagonalization = 'david+distpara' and with parallel executable.
               The number of processors to be used for parallel diagonalization.
               With the default value ( 0 ) the code try to use all the 
               processors. Actually the number of processors used is the
               largest square number less or equal to ortho_para.
               

diago_thr_init
               REAL
               Convergence threshold for the first iterative diagonalization
               (the check is on eigenvalue convergence).
               For scf calculations, the default is 1.D-2 if starting from a
               superposition of atomic orbitals; 1.D-5 if starting from a
               charge density. During self consistency the threshold (ethr)
               is automatically reduced when approaching convergence.
               For non-scf calculations, this is the threshold used in the
               iterative diagonalization. The default is conv_thr / nelec.
               For 'phonon' calculations, diago_thr_init is ignored:
               the threshold is always set to  conv_thr / nelec .

diago_cg_maxiter
               INTEGER
               For conjugate gradient diagonalization:
               max number of iterations

diago_david_ndim
               INTEGER ( default = 4 )
               For Davidson diagonalization: dimension of workspace
               (number of wavefunction packets, at least 2 needed).
               A larger value may yield a faster algorithm but uses
               more memory

diago_diis_ndim
               INTEGER ( default = 3 )
               For DIIS: dimension of the reduced space.

diago_full_acc
               LOGICAL ( default = .FALSE. )
               If .TRUE. all the empty states are diagonalized at the same level