Input data format: { } = optional, [ ] = it depends

All quantities whose dimensions are not explicitly specified are in
HARTREE ATOMIC UNITS

===============================================================================
&CONTROL
  ...
/
&SYSTEM
 ...
/
&ELECTRONS
...
/
[ &IONS
  ...
 / ]
[ &CELL
  ...
 / ]
[ &WANNIER
  ...
 / ]
ATOMIC_SPECIES
 X  Mass_X  PseudoPot_X
 Y  Mass_Y  PseudoPot_Y
 Z  Mass_Z  PseudoPot_Z
ATOMIC_POSITIONS { alat | bohr | crystal | angstrom }
in all cases except calculation = 'neb' or 'smd' :
  X 0.0  0.0  0.0  {if_pos(1) if_pos(2) if_pos(3)}
  Y 0.5  0.0  0.0
  Z O.0  0.2  0.2
if calculation = 'neb' .OR. 'smd' :
  first_image
  X 0.0  0.0  0.0  {if_pos(1) if_pos(2) if_pos(3)}
  Y 0.5  0.0  0.0
  Z O.0  0.2  0.2
  { intermediate_image 1
    X 0.0  0.0  0.0
    Y 0.9  0.0  0.0
    Z O.0  0.2  0.2
    intermediate_image ...
    X 0.0  0.0  0.0
    Y 0.9  0.0  0.0
    Z O.0  0.2  0.2 }
  last_image
  X 0.0  0.0  0.0
  Y 0.7  0.0  0.0
  Z O.0  0.5  0.2 
[ CELL_PARAMETERS { cubic | hexagonal }
   a(1,1) a(2,1) a(3,1)
   a(1,2) a(2,2) a(3,2)
   a(1,3) a(2,3) a(3,3) ]
[ OCCUPATIONS
   f_inp(1,1)  f_inp(2,1)  f_inp(3,1) ... f_inp(10,1)
   f_inp(11,1) f_inp(12,1) ... f_inp(nbnd,1)
 [ f_inp(1,2)  f_inp(2,2)  f_inp(3,2) ... f_inp(10,2)
   f_inp(11,2) f_inp(12,2) ... f_inp(nbnd,2) ] ]
[ CLIMBING_IMAGES
   list of images, separated by a comma ]   
[ CONSTRAINTS
   nconstr   { constr_tol }
   constr_type(.)   constr(1,.)   constr(2,.) { constr_target(.) } ]

===============================================================================
NAMELIST &CONTROL

calculation    CHARACTER ( default = 'cp' )
               a string describing the task to be performed:
               'cp', 'scf', 'nscf', 'relax', 'vc-relax', 'vc-cp', 'neb', 
               'smd', 'cp-wf', 'fpmd', 'metadyn'
               where :               
               cp       = Car-Parrinello MD (includes cases 'scf' and 'relax')
               scf      = electron minimization
               nscf     = non-selfconsistent calculation of KS states:
                          reads the charge density previously saved to disk,
                          sets occupancies to a bogus nonzero value
               relax    = ionic minimization
               vc-relax = ionic + cell minimization
               vc-cp    = variable-cell Car-Parrinello (-Rahman) dynamics
               neb      = Nudged Elastc Band method
               smd      = String Method Dynamics
               cp-wf    = Car-Parrinello MD with Wannier functions
               fpmd     = CP works in FPMD compatibility mode, with all FPMD
                          features not yet ported in CP, but works only for
                          norm-conserving pseudopotentials
               metadyn  = Laio-Parrinello meta-dynamics

title          CHARACTER ( default = 'MD Simulation' )
               reprinted on output.

restart_mode   CHARACTER ( default = 'restart' )
               from_scratch    = from scratch
	                         NEB only: the starting path is obtained
                                 with a linear interpolation between the images
                                 specified in the ATOMIC_POSITIONS card.
			         Note that in the linear interpolation
                                 periodic boundary conditions ARE NON USED.
               restart         = continue a previous simulation,
                                 and performs  "nstep" new steps,
               reset_counters  = continue a previous simulation,
                                 performs  "nstep" new steps, resetting
                                 the counter and averages
               upto            = continue a previous simulation and stops 
                                 when the counter value is equal "nstep"

nstep          INTEGER                         
               number of ionic + electronic steps
               default =    1 if calculation = 'scf', 'nscf'
	               =    0 if calculation = 'neb', 'smd'
                       =   50 for the other cases

tstress        LOGICAL ( default = .FALSE. )
               This flag controls the printing of the stress, always .TRUE.
               when the cell is moving.
               .TRUE.    = write the stress tensor to standard output 
                           every "iprint" steps.
               .FALSE.   = do not write the stress tensor stdout.

tprnfor        LOGICAL ( default = .FALSE. )
               This flag controls the printing of the interatomic forces, 
               always .TRUE. when the ions are moving.
               .TRUE.    =  write the atomic forces to standard output every 
                            "iprint" steps.
               .FALSE.   =   do not write atomic forces to stdout.

dt             REAL ( default = 1.D0 )
               time step for molecular dynamics, in Hartree atomic units.
               ( 1 a.u. of time = 2.4189 * 10^-17 s )

ekin_conv_thr  REAL ( default = 1.D-6 )
               convergence criterion for electron minimization:
               convergence is achieved when "ekin < ekin_conv_thr".
               See also etot_conv_thr - both criteria must be satisfied.

etot_conv_thr  REAL ( default = 1.D-4 )
               convergence criteria for ion minimization:
               "etot(n+1)-etot(n) < etot_conv_thr", where "n" is the step 
               index, and "etot" the DFT energy.
               See also ekin_conv_thr for electron minimization and 
               forc_conv_thr for ion minimization - both criteria must be 
               satisfied.

forc_conv_thr  REAL ( default = 1.D-3 )
               "MAXVAL(fion) < forc_conv_thr", where fion are the atomic 
               forces.
               See also etot_conv_thr - both criteria must be satisfied.

max_seconds    REAL ( default = 1.D+7 )
               smoothly terminate program after the specified number of seconds
               this parameter is typically used to prevent an hard kill from
               the queuing system.

tefield        LOGICAL ( default = .FALSE.)
               If .TRUE. perform calculations with a finite electric field 
               which is described through the modern theory of the polarization

iprint         INTEGER ( default = 10 )
               Number of steps between successive writings of relevant 
               physical quantities to standard output and to files "fort.3?" 
               or "prefix.???" depending on "prefix" parameter

isave          INTEGER ( default = 100 )
               Number of steps between successive savings of
               information needed to restart the run ( see also ndr, ndw ).

prefix         CHARACTER ( default = 'cp' )
               basename prepended to input/output filenames. 
               
verbosity      CHARACTER
               'high' | 'default' | 'low' | 'minimal' | 'default+projwc'
               'default+projwc' 
                  the codes prints the dafault output quantities
                  and the projections of the wave functions on atomic wfc  

outdir         CHARACTER ( default =  value of the ESPRESSO_TMPDIR environment
               variable if set; current directory ('./') otherwise )
               input, temporary, trajectories and output files are found in 
               this directory.

disk_io        CHARACTER
               'high', 'default'
               'high'
                  CP code will write Kohn-Sham wf files and additional 
                  informations in data-file.xml in order to restart 
                  with a PW calculation or to use postprocessing tools.

saverho        LOGICAL 
               This flag controls the saving of charge density in CP codes:
               If  .TRUE.        save charge density to restart dir,
               If .FALSE. do not save charge density. 

pseudo_dir     CHARACTER ( default = value of the $ESPRESSO_PSEUDO environment
               variable if set; '$HOME/espresso/pseudo/' otherwise )
               directory containing pseudopotential files.

ndr, ndw       INTEGER ( default = 50 )
               Units for input and output restart file.

tabps          LOGICAL ( default = .false. )
               .true. to compute the volume and/or the surface of an isolated
               system for finete pressure/finite surface tension calculations
               (PRL 94, 145501 (2005); JCP 124, 074103 (2006)).
               


===============================================================================
NAMELIST &SYSTEM

ibrav          INTEGER
               bravais-lattice index (must be specified)
               see at the end of this file

celldm(i)      REAL, DIMENSION(6)                        
               crystallographic constants - see at the end of this file
               alat = celldm(1) is the lattice parameter "a" (in BOHR)
               only needed celldm (depending on ibrav) must be specified

a, b, c, cosab, cosac, cosbc: 
               REAL
	       traditional crystallographic constants (a,b,c in ANGSTROM)
               specify either these or celldm  but not both
 
nat            INTEGER
               number of atoms in the unit cell - must be specified

ntyp           INTEGER
               number of types of atoms in the unit cell - must be specified

ecutwfc        REAL
               kinetic energy cutoff (Ry) for wavefunctions
               (must be specified)
	       
ecutrho        REAL ( default = 4 * ecutwfc )
               kinetic energy cutoff (Ry) for charge density and potential
               May be larger ( for ultrasoft PP ) or somewhat smaller 
               ( but not much smaller ) than the default value. Note that
               if you have norm-conserving PP only, setting it to a larger
               value than the default is a waste of time.

nelec          INTEGER
               number of electron in the unit cell. If not specified it is
               read from the pseudopotential

tot_charge     INTEGER ( default = 0 )
               total system charge. Used only if nelec is unspecified,
               otherwise it is ignored.

nbnd           INTEGER ( default = nelec / 2 )
               number of electronic states (bands) to be calculated.

xc_type        CHARACTER ( default = read from pseudopot )
               can be used to force a given functional 
               'BLYP'  use Becke-Lee-Yang-Parr GCC-XC Functional
               'BP'    use Becke-Perdew GCC-XC Functionals
               'PBE'   use Perdew-Burke-Ernzerhof GCC-XC Functionals
               'PZ'    use Slater X, and Perdew-Zunger C Functionals
               'PW'    use Slater X, and Perdew-Wang C Functionals
               'LDA'   use LDA xc functional: the xc potential is
                       calculated through an interpolation table

occupations    CHARACTER
               a string describing the occupation of the electronic states.
               In the case of conjugate gradient style of minimization
               of the electronic states, if occupations is set to 'ensemble',  
               this allows ensemble DFT calculations for metallic systems 
                                                                                                                             
smearing       CHARACTER
               a string describing the kind of occupations for electronic states
               in the case of ensemble DFT (occupations == 'ensemble' );
               now only Fermi-Dirac ('fd') case is implemented
                                                                                                                             
degauss        REAL ( default = 0.D0 )
               parameter for the smearing function, only used for ensemble DFT
               calculations

nspin          INTEGER ( default = 1 )
               nspin = 1 :   non-polarized calculation
               nspin = 2 :  spin-polarized calculation

nelup, neldw   REAL
               number of spin-up and spin-down electrons, respectively.
               The sum must yield nelec that must also be specified
               explicitly in this case.

multiplicity   INTEGER ( default = 0 [unspecified] )
               spin multiplicity (2s+1). 1 is singlet, 2 for doublet etc.
               if unspecified or a non-zero value is specified in nelup/neldw
               then multiplicity variable is ignored.

tot_magnetization INTEGER ( default = -1 [unspecified] )
               majority spin - minority spin (nelup - neldw).
               if unspecified or a non-zero value is specified in nelup/neldw
               then tot_magnetization variable is ignored.
               YES, there is redundancy! nelup/neldw are enough to specify
               the spin state. However these variables are not very convenient
               and will be eliminated from the input in future versions.
	       It is recommended to use either 'multiplicity' or equivalently
               'tot_magnetization' to specify the spin state.

ecfixed        REAL ( default = 0.0 )
qcutz          REAL ( default = 0.0 )
q2sigma        REAL ( default = 0.1 )
               parameters for modified functional to be used in
               variable-cell molecular dynamics (or in stress calculation).
               "ecfixed" is the value (in Rydberg) of the constant-cutoff; 
               "qcutz" and "q2sigma" are the height and the width (in Rydberg) 
               of the energy step for reciprocal vectors whose square modulus 
               is greater than "ecfixed". In the kinetic energy, G^2 is
               replaced by G^2 + qcutz * (1 + erf ( (G^2 - ecfixed)/q2sigma) )
               See: M. Bernasconi et al, J. Phys. Chem. Solids 56, 501 (1995)
               Comment: For what would have been ecutwfc = 25.0 Ryd in fixed cell
               calculations one should use the following set of parameters for
               cell dynamics:
               (ecutwfc = 30.0, ecfixed = 25.0, qcutz = 25.0, q2sigma = 3.0)


nr1,nr2,nr3    INTEGER
               three-dimensional FFT mesh (hard grid) for charge
               density (and scf potential). If not specified
               the grid is calculated based on the cutoff for
               charge density (see also "ecutrho")

nr1s,nr2s,nr3s INTEGER
               three-dimensional mesh for wavefunction FFT and for the smooth 
               part of charge density ( smooth grid ). 
               Coincides with nr1, nr2, nr3 if ecutrho = 4 * ecutwfc ( default )


nr1b, nr2b, nr3b 
               INTEGER
               dimensions of the "box" grid for Ultrasoft pseudopotentials
               must be specified if Ultrasoft PP are present



===============================================================================
NAMELIST &ELECTRONS

electron_maxstep  
               INTEGER ( default = 100 )
               maximum number of iterations in a scf step

electron_dynamics 
               CHARACTER ( default = 'none' )
               set how electrons should be moved
               none    = electronic degrees of freedom (d.o.f.) are kept fixed 
               sd      = steepest descent algorithm is used to minimize 
                         electronic d.o.f. 
               damp    = damped dynamics is used to propagate electronic d.o.f. 
               verlet  = standard Verlet algorithm is used to propagate 
                         electronic d.o.f. 
               cg      = conjugate gradient is used to converge the 
                         wavefunction at each ionic step. 'cg' can be used 
                         interchangeably with 'verlet' for a couple of ionic
                         steps in order to "cool down" the electrons and
                         return them back to the Born-Oppenheimer surface.
                         Then 'verlet' can be restarted again. This procedure 
                         is useful when electronic adiabaticity in CP is lost
                         yet the ionic velocities need to be preserved.

emass          REAL ( default = 400.D0 )
               effective electron mass in the CP Lagrangian, in atomic units 
               ( 1 a.u. of mass = 1/1822.9 a.m.u. = 9.10939 * 10^-31 kg )

emass_cutoff   REAL ( default = 2.5D0 )
               mass cut-off (in Rydberg) for the Fourier acceleration
               effective mass is rescaled for "G" vector components with 
               kinetic energy above "emass_cutoff" 

orthogonalization 
               CHARACTER ( default = 'ortho' )
               selects the orthonormalization method for electronic wave 
               functions
               ortho         = use iterative algorithm - if it doesn't converge, 
                               reduce the timestep, or use options ortho_max 
                               and ortho_eps, or use Gram-Schmidt instead just 
                               to start the simulation
               Gram-Schmidt  = use Gram-Schmidt algorithm - to be used ONLY in 
                               the first few steps. 
                               YIELDS INCORRECT ENERGIES AND EIGENVALUES.

ortho_eps      REAL ( default = 1.D-8 )
               tolerance for iterative orthonormalization
               meaningful only if orthogonalization = 'ortho'
            
ortho_max      INTEGER ( default = 20 )
               maximum number of iterations for orthonormalization
               meaningful only if orthogonalization = 'ortho'

ortho_para     INTEGER ( default = 0 )
               meaningful only if orthogonalization = 'ortho' and with parallel 
               executable.
               Suggested number of processors to be used for distributing
               lambda matrixes and for parallel diagonalization.
               With the default value ( 0 ) the code try to use the number 
               of processors, that gives the best performance


electron_damping 
               REAL ( default = 0.1D0 )
               damping frequency times delta t, optimal values could be
               calculated with the formula :
                        SQRT( 0.5 * LOG( ( E1 - E2 ) / ( E2 - E3 ) ) )
               where E1, E2, E3 are successive values of the DFT total energy 
               in a steepest descent simulations.
               meaningful only if " electron_dynamics = 'damp' "

electron_velocities
               CHARACTER
               zero      = restart setting electronic velocities to zero
               default   = restart using electronic velocities of the 
                           previous run

electron_temperature
               CHARACTER ( default = 'not_controlled' )
               nose            = control electronic temperature using Nose 
                                 thermostat. see parameter "fnosee" and "ekincw"
               rescaling       = control electronic temperature via velocities 
                                 rescaling 
               not_controlled  = electronic temperature is not controlled

ekincw         REAL ( default = 0.001D0 )
               value of the average kinetic energy (in atomic units) forced
               by the temperature control
               meaningful only with " electron_temperature /= 'not_controlled' "

fnosee         REAL ( default = 1.D0 )
               oscillation frequency of the nose thermostat (in terahertz) 
               meaningful only with " electron_temperature = 'nose' "

startingwfc    CHARACTER ( default = 'random' )
               random  = randomize electronic wave functions ( see "ampre" )
               atomic  = from superposition of atomic state 
                         (NOT YET IMPLEMENTED)

ampre          REAL ( default = 0.D0 )
               amplitude of the randomization ( allowed values: 0.0 - 1.0 )
               meaningful only if " startingwfc = 'random' "

grease         REAL ( default = 1.D0 )
               a number <= 1, very close to 1: the damping in electronic
               damped dynamics is multiplied at each time step by "grease"
               (avoids overdamping close to convergence: Obsolete ?)
               grease = 1 : normal damped dynamics

tcg            LOGICAL ( default = .FALSE. )
               if .TRUE. perform a conjugate gradient minimization of the
               electronic states for every ionic step.
               It requires Gram-Schmidt orthogonalization of the electronic
               states.

maxiter        INTEGER ( default = 100 )
               maximum number of conjugate gradient iterations for
               conjugate gradient minimizations of electronic states

conv_thr         REAL ( default = 1.D-6 )
               convergence criterion for energy in the case of
               conjugate gradient minimization of the electronic states
               
passop         REAL ( default =  0.3D0 )
               small step used in the  conjugate gradient minimization 
               of the electronic states. 

n_inner        INTEGER ( default = 2 )
               number of internal cycles for every conjugate gradient 
               iteration only for ensemble DFT

epol           INTEGER ( default = 3 )
               direction of the finite electric field (only if tefield == .TRUE.)
               In the case of a PARALLEL calculation only the case epol==3
               is implemented

efield         REAL ( default = 0.d0 )
               intensity in a.u. of the finite electric field 
               (only if tefield == .TRUE.)


===============================================================================
NAMELIST &IONS  ( only if calculation = 'cp', 'relax',
                                        'vc-relax', 'vc-cp', 'neb', 'smd' )

ion_dynamics   CHARACTER ( default = 'none' )
               set how ions should be moved
               none    = ions are kept fixed 
               sd      = steepest descent algorithm is used to minimize ionic 
                         configuration
               cg      = conjugate gradient algorithm is used to minimize ionic 
                         configuration
               damp    = damped dynamics is used to propagate ions
               verlet  = standard Verlet algorithm is used to propagate ions

ion_nstepe     INTEGER ( default = 1 )
               number of electronic steps per ionic step.

ion_radius(i)  REAL ( default = 0.5D0 )
               pseudo-atomic radius of the i-th atomic species for Ewald 
               summation (one for each atomic type). 
               values between 0.5 and 2.0 are usually used.

ion_damping    REAL ( default = 0.1D0 )
               damping frequency times delta t, optimal values could be
               calculated with the formula:
                          SQRT( 0.5 * LOG( ( E1 - E2 ) / ( E2 - E3 ) ) )
               where E1 E2 E3 are successive values of the DFT total energy 
               in a ionic steepest descent simulation.
               meaningful only if " ion_dynamics = 'damp' "

ion_positions  CHARACTER
               default     = restart the simulation with atomic positions read
                             from the restart file.
               from_input  = restart the simulation with atomic positions read
                             from standard input.
                             ( see also the card 'ATOMIC_POSITIONS' )

ion_velocities CHARACTER
               initial ionic velocities
               default     = restart the simulation with atomic velocities read
                             from the restart file
               change_step = restart the simulation with atomic velocities read
                             from the restart file, with rescaling due to the
                             timestep change, specify the old step via tolp
                             as in tolp = 'old_time_step_value' in au
               random      = start the simulation with random atomic velocities
               from_input  = restart the simulation with atomic velocities read
                             from standard input 
                             ( see the card 'ATOMIC_VELOCITIES' )
               zero        = restart the simulation with atomic velocities set 
                             to zero

ion_temperature  
               CHARACTER ( default = 'not_controlled' )
               nose            = control ionic temperature using Nose-Hoover
                                 thermostat  see parameters "fnosep", "tempw",
                                 "nhpcl", "ndega", "nhptyp"
               rescaling       = control ionic temperature via velocities 
                                 rescaling. see parameter "tolp"
               not_controlled  = ionic temperature is not controlled


tempw          REAL ( default = 300.D0 )
               value of the ionic temperature (in Kelvin) forced by the 
               temperature control.
               meaningful only with " ion_temperature /= 'not_controlled' "
               "ndega" controls number of degrees of freedom used in 
               temperature calculation

fnosep         REAL ( default = 1.0D0 )
               oscillation frequency of the nose thermostat (in terahertz)
               [note that 3 terahertz = 100 cm^-1]
               meaningful only with " ion_temperature = 'nose' "
               for Nose-Hoover chain one can set frequencies of all thermostats
               ( fnosep = X Y Z etc. ) If only first is set, the defaults for 
               the others will be same.

nhpcl          INTEGER ( default = 1 )
               number of thermostats in the Nose-Hoover chain
               currently maximum allowed is 4

nhptyp         INTEGER ( default = 0 )
               type of the "massive" Nose-Hoover chain thermostat
               nhptyp=1 uses a NH chain per each atomic type
               nhptyp=2 uses a NH chain per atom, this one is useful
               for extremely rapid equipartitioning (equilibration is a 
               different beast)
               nhptyp=3 together with nhgrp allows fine grained thermostat
               control
               NOTE: if using more than 1 thermostat per system there will
               be a common thermostat added on top of them all, to disable
               this common thermostat specify nhptyp=-X instead of nhptyp=X

nhgrp(i)       INTEGER ( default = -1 )
               specifies which thermostat group to use for given atomic type
               when >0 assigns all the atoms in this type to thermostat
               labeled nhgrp(i), when =-1 each atom in the type gets its own
               thermostat. Example: H2CO, with types H (1), C(2), O(3); 
               setting nhgrp={-1 2 2} will add a thermostat per H, and one
               common thermostat for both C&O.

ndega          INTEGER ( default = 0 )
               number of degrees of freedom used for temperature calculation
               ndega <= 0 sets the number of degrees of freedom to 
               [3*nat-abs(ndega)], ndega > 0 is used as the target number

tolp           REAL ( default = 100.D0 )
               tolerance (in Kelvin) of the rescaling. When ionic temperature
               differs from "tempw" more than "tolp" apply rescaling.
               meaningful only with " ion_temperature = 'rescaling' "
               and with ion_velocities='change_step', where it specifies 
               the old timestep

tranp(i)       LOGICAL ( default = .FALSE. )
               If .TRUE. randomize ionic positions ( see "amprp" ) for the
               atomic type corresponding to the index i.

amprp(i)       REAL ( default = 0.D0 )
               amplitude of the randomization for the atomic type corresponding
               to the index i ( allowed values: 0.0 - 1.0 ).
               meaningful only if " tranp(i) = .TRUE.".

greasp         REAL ( default = 1.D0 )
               same as "grease", for ionic damped dynamics.

remove_rigid_rot
               LOGICAL ( default = .FALSE. )
               this keyword is useful when simulating the dynamics and/or the
               thermodynamics of an isolated system. If set to true the total
               torque of the internal forces is set to zero by adding new forces
               that compensate the spurious interaction with the periodic
               images. This allowes for the use of smaller supercells.
               BEWARE: since the potential energy is no longer consistent with
               the forces (it still contains the spurious interaction with the
               repeated images), the total energy is not conserved anymore.
               However the dynamical and thermodynamical properties should be
               in closer agreement with those of an isolated system.
               Also the final energy of a structural relaxation will be higher,
               but the relaxation itself should be faster.

!
! ... keywords used only in NEB calculations
!

num_of_images  INTEGER ( default = 0 )
               number of points used to discretize the path 
               (it must be larger than 3)

opt_scheme     
               CHARACTER ( default = "quick-min" )
               specify the type of optimization scheme      
               "sd"         : steepest descent
               "broyden"    : quasi-Newton Broyden's second method (suggested)
	       "quick-min"  : an optimisation algorithm based on the
	                      projected velovity Verlet scheme
               "langevin"   : finite temperature langevin dynamics of the 
                              string (smd only). It is used to compute the
                              average path and the free-energy profile.

CI_scheme      CHARACTER. ( default = "no-CI" )
               specify the type of Climbing Image scheme
               "no-CI"      : climbing image is not used
               "auto"       : original CI scheme. The image highest in energy 
	                      does not feel the effect of springs and is 
			      allowed to climb along the path