Input data format: { } = optional, [ ] = it depends

All quantities whose dimensions are not explicitly specified are in
RYDBERG ATOMIC UNITS

===============================================================================
&CONTROL
  ...
/
&SYSTEM
 ...
/
&ELECTRONS
...
/
[ &IONS
  ...
 / ]
[ &CELL
  ...
 / ]
[ &PHONON
  ...
 / ]
ATOMIC_SPECIES
 X  Mass_X  PseudoPot_X
 Y  Mass_Y  PseudoPot_Y
 Z  Mass_Z  PseudoPot_Z
ATOMIC_POSITIONS { alat | bohr | crystal | angstrom }
in all cases except calculation = 'neb' or 'smd' :
  X 0.0  0.0  0.0  {if_pos(1) if_pos(2) if_pos(3)}
  Y 0.5  0.0  0.0
  Z O.0  0.2  0.2
if calculation = 'neb' .OR. 'smd' :
  first_image
  X 0.0  0.0  0.0  {if_pos(1) if_pos(2) if_pos(3)}
  Y 0.5  0.0  0.0
  Z O.0  0.2  0.2
 { intermediate_image 1
   X 0.0  0.0  0.0
   Y 0.9  0.0  0.0
   Z O.0  0.2  0.2
   intermediate_image ...
   X 0.0  0.0  0.0
   Y 0.9  0.0  0.0
   Z O.0  0.2  0.2 }
   last_image
   X 0.0  0.0  0.0
   Y 0.7  0.0  0.0
   Z O.0  0.5  0.2 
K_POINTS { tpiba | automatic | crystal | gamma }
if (gamma)
   nothing to read
if (automatic) 
   nk1, nk2, nk3, k1, k2, k3
if (not automatic) 
   nks
   xk_x, xk_y, xk_z,  wk
[ CELL_PARAMETERS { cubic | hexagonal }
   a(1,1) a(2,1) a(3,1)
   a(1,2) a(2,2) a(3,2)
   a(1,3) a(2,3) a(3,3) ]
[ OCCUPATIONS
   f_inp(1,1)  f_inp(2,1)  f_inp(3,1) ... f_inp(10,1)
   f_inp(11,1) f_inp(12,1) ... f_inp(nbnd,1)
 [ f_inp(1,2)  f_inp(2,2)  f_inp(3,2) ... f_inp(10,2)
   f_inp(11,2) f_inp(12,2) ... f_inp(nbnd,2) ] ]
[ CLIMBING_IMAGES
   list of images, separated by a comma ]   
[ CONSTRAINTS
   nconstr   constr_tol
   constr_type(.)   constr(1,.)   constr(2,.) { constr_target(.) } ]   
===============================================================================
NAMELIST &CONTROL

calculation    CHARACTER
               a string describing the task to be performed:
               'scf', 'nscf', 'phonon', 'relax', 'md', 'vc-relax', 
	       'vc-md', 'neb', 'smd', 'metadyn'
               (vc = variable-cell). Default: 'scf'

title          CHARACTER
               reprinted on output. Default: ' '

verbosity      CHARACTER
               'high' | 'default' | 'low' | 'minimal'

restart_mode   CHARACTER
               'from_scratch'  : from scratch ( default )
	                         NEB and SMD only: the starting path is obtained
                                 with a linear interpolation between the images
                                 specified in the ATOMIC_POSITIONS card.
				 Note that in the linear interpolation
                                 periodic boundary conditions ARE NON USED.
               'restart'       : from previous interrupted run

wf_collect     LOGICAL ( default = .FALSE. )
               This flag controls the way in which wave functions are stored
               to disk :
               .TRUE.  collect wave functions from all processors and store 
                       them in a single restart file ( outdir/prefix.save )
               .FALSE. do not collect wave function and leave them in temporary
                       local files (one per processor)

nstep          INTEGER                         
               number of ionic + electronic steps
               default: 1 if calculation = 'scf', 'nscf'
	                0 if calculation = 'neb', 'smd'
                       50 for the other cases

iprint         INTEGER
               band energies are written every iprint iterations
               default: write only at convergence

tstress        LOGICAL
               calculate stress. Set to .TRUE. if calculation='vc-md'

tprnfor        LOGICAL
               print forces. Set to .TRUE. if calculation='relax','md','vc-md'
            
dt             REAL ( default = 20.D0 )
               time step for molecular dynamics, in Rydberg atomic units
               (1 a.u.=4.8378 * 10^-17 s : beware, CP and FPMD codes use
               Hartree atomic units, half that much!!!)

outdir         CHARACTER ( default = current directory ('./') )
               input, temporary, output files are found in this directory,
               see also 'wfcdir'
            
wfcdir         CHARACTER ( by default same as outdir )
               this directory specifies where to store files generated by
               each processor (*.wfc{N}, *.igk{N}, etc.). The idea here is
               to be able to separately store the largest files, while 
               the files necessary for restarting still go into 'outdir'
               (for now only works for stand alone PW )


prefix         CHARACTER ( default = 'pwscf' )
               prepended to input/output filenames: 
               prefix.wfc, prefix.rho, etc. 

max_seconds    REAL ( default : 1.D+7, or 150 days, i.e. no time limit )
               jobs stops after max_seconds CPU time

etot_conv_thr  REAL ( default = 1.0D-4 )
               convergence threshold on total energy (a.u) for ionic 
               minimization: the convergence criterion is satisfied
               when the total energy changes less than etot_conv_thr
               between two consecutive scf steps.
               See also forc_conv_thr - both criteria must be satisfied

forc_conv_thr  REAL ( default = 1.0D-3 )
               convergence threshold on forces (a.u) for ionic 
               minimization: the convergence criterion is satisfied
               when all components of all forces are smaller than
               forc_conv_thr.
               See also etot_conv_thr - both criteria must be satisfied

disk_io        CHARACTER
               'high', 'default', 'low', 'minimal'

pseudo_dir     CHARACTER ( default = '$HOME/pw/pseudo/' )
               directory containing pseudopotential files

tefield        LOGICAL ( default = .FALSE. )
               If .TRUE. a sawlike potential is added to the 
               bare ionic potential. 

lelfield       LOGICAL ( default = .FALSE. )
               If .TRUE. a homogeneous finite electric field
               described through the modern theory of the polarization
               is applied. 

lberry         LOGICAL  (default =  .FALSE.)
               If .TRUE. perform a Berry phase calculation
               See the header of PW/bp_c_phase.f90 for documentation

gdir           INTEGER
               For Berry phase calculation: direction of the k-point
               strings in reciprocal space. Allowed values: 1, 2, 3 
               1=first, 2=second, 3=third reciprocal lattice vector
               For calculations with finite electric fields
               (lelfield==.true.), gdir is the direction of the field

nppstr         INTEGER
               For Berry phase calculation: number of k-points to be 
               calculated along each symmetry-reduced string
               The same for calculation with finite electric fields
               (lelfield==.true.)

nberrycyc      INTEGER ( default = 1 )
               In the case of a finite electric field  ( lelfield == .TRUE. )
               it defines the number of iterations for converging the
               wavefunctions in the electric field Hamiltonian, for each
               external iteration on the charge density  

===============================================================================
NAMELIST &SYSTEM

ibrav          INTEGER
               bravais-lattice index (must be specified)
               see at the end of this file

celldm(i)      REAL, DIMENSION(6)                        
               crystallographic constants - see at the end of this file
               alat = celldm(1) is the lattice parameter "a" (in BOHR)
               only needed celldm (depending on ibrav) must be specified

a, b, c, cosab, cosac, cosbc: 
               REAL
	       traditional crystallographic constants (a,b,c in ANGSTROM,
               cosab = cosine of the angle between axis a and b
               specify either these OR celldm but NOT both
 
nat            INTEGER
                number of atoms in the unit cell - must be specified

ntyp           INTEGER
               number of types of atoms in the unit cell - must be specified

nbnd           INTEGER
               number of electronic states (bands) to be calculated.
               Default: for an insulator, nbnd = (number of valence bands)
                        (nbnd=nelec/2, see below for nelec)
                        for a metal, 20% more (minimum 4 more)
               Note that in spin-polarized calculations the number of
               k-point, not the number of bands per k-point, is doubled

nelec          REAL
               number of electron in the unit cell
               (may be noninteger if you wish)
               Default: the same as ionic charge (neutral cell)
               A compensating jellium background is inserted
               to remove divergencies if the cell is not neutral

ecutwfc        REAL
               kinetic energy cutoff (Ry) for wavefunctions
               (must be specified)
	       
ecutrho        REAL ( default = 4 * ecutwfc )
               kinetic energy cutoff (Ry) for charge density and potential
               May be larger ( for ultrasoft PP ) or somewhat smaller 
               ( but not much smaller ) than the default value

nr1,nr2,nr3    INTEGER
               three-dimensional FFT mesh (hard grid) for charge
               density (and scf potential). If not specified
               the grid is calculated based on the cutoff for
               charge density (see also "ecutrho")

nr1s,nr2s,nr3s INTEGER
               three-dimensional mesh for wavefunction FFT and for the smooth 
               part of charge density ( smooth grid ). 
               Coincides with nr1, nr2, nr3 if ecutrho = 4 * ecutwfc ( default )

nosym          LOGICAL ( default = .FALSE. )
               if (.TRUE.) symmetry is not used. Note that a k-point grid
               provided in input is used "as is"; an automatically generated
               k-point grid will contain only points in the irreducible BZ 
               of the lattice.  Use with care in low-symmetry large cells 
               if you cannot afford a k-point grid with the correct symmetry.

starting_magnetization(i)   
               REAL
               starting spin polarization (values between -1 and 1)
               on atomic type 'i' in a lsda calculation. Breaks the
               symmetry and provides a starting point for self-consistency.
               The default value is zero, BUT a value MUST be specified for
               AT LEAST one atomic type in spin polarized calculations.
               If zero starting magnetization is specified, zero final
               magnetization will be obtained.

occupations    CHARACTER
               'smearing':     gaussian smearing for metals
                               requires a value for degauss
               'tetrahedra' :  for metals and DOS calculation
                               (see PRB49, 16223 (1994))
                               Requires uniform grid of k-points,
                               automatically generated (see below)
               'fixed' :       for insulators with a gap
               'from_input' :  The occupation are read from input file.
                               Presently works only with one k-point 
                               (LSDA allowed). 

degauss        REAL ( default = 0.D0 Ry )
               value of the gaussian spreading (Ry) for brillouin-zone
               integration in metals.

smearing       CHARACTER
               'gaussian', 'gauss':  
                    ordinary Gaussian spreading (Default)
               'methfessel-paxton', 'm-p', 'mp':
                    Methfessel-Paxton first-order spreading
                    (see PRB 40, 3616 (1989)).
               'marzari-vanderbilt', 'cold', 'm-v', 'mv':
                    Marzari-Vanderbilt cold smearing
                    (see PRL 82, 3296 (1999))
               'fermi-dirac', 'f-d', 'fd':
                    smearing with Fermi-Dirac function

nelup, neldw   REAL
               number of spin-up and spin-down electrons, respectively
               The sum must yield nelec that must also be specified
               explicitely in this case.

nspin          INTEGER
               nspin = 1 :   non-polarized calculation (default)
               nspin = 2 :  spin-polarized calculation

ecfixed        REAL                                      40.0
qcutz          REAL                                       0.0
q2sigma        REAL                                       0.1
               parameters for modified functional to be used in
               variable-cell molecular dynamics (or in stress calculation)

xc_type        CHARACTER
               Exchange-correlation functional
               Presently unused: XC functional is read from PP files

lda_plus_u        LOGICAL   ( default = .FALSE.)
Hubbard_U(I)      REAL      ( default = 0.D0 for all species)
Hubbard_alpha(I)  REAL      ( default = 0.D0 for all species)
               parameters for LDA+U calculations
               If lda_plus_u = .TRUE. you must specify, for species I,
               the parameters U and (optionally) alpha of the Hubbard 
               model (both in eV). See:
               Anisimov, Zaanen, and Andersen, PRB 44, 943 (1991);
               Anisimov et al., PRB 48, 16929 (1993);
               Liechtenstein, Anisimov, and Zaanen, PRB 52, R5467 (1994); 
               Cococcioni and de Gironcoli, PRB 71, 035105 (2005).
               IMPORTANT: LDA+U works only for a few selected elements.
               Modify PW/set_hubbard_l.f90 and PW/tabd.f90 if you plan to 
               use LDA+U with an element that is not configured there.

starting_ns_eigenvalue(m,ispin,I) REAL (default = -1.d0 that means NOT SET)
               In the first iteration of an LDA+U run it overwrites
               the m-th eigenvalue of the ns occupation matrix for the
               ispin component of atomic species I. Leave unchanged
               eigenvalues that are not set. This is useful to suggest
               the desired orbital occupations when the default choice
               takes another path.

U_projection_type   CHARACTER   (default='atomic')
               Only active when lda_plus_U is .true., specifies the type
               of projector on localized orbital to be used in the LDA+U
               scheme.
               Currently available choices:
               'atomic': use atomic wfc's (as they are) to build the projector 
               'ortho-atomic': use Lowdin orthogonalized atomic wfc's
               'file': use the information from file "prefix".atwfc that must
                       have been generated previously, for instance by pmw.x
                       (see PP/poormanwannier.f90 for details)
               NB: forces and stress currently implemented only for the
                   'atomic' choice.

edir           INTEGER
               1, 2 or 3. Used only if tefield is .TRUE.. The direction of the
               electric field is parallel to the bg(:,edir) reciprocal 
               lattice vector ( So the potential is constant in planes 
               defined by the mesh points )

emaxpos        REAL ( default = 0.5D0 )
               Position of the maximum of the sawlike potential within the 
               unit cell ( 0 < emaxpos < 1 )

eopreg         REAL( default = 0.1D0 )
               Part of the unit cell where the sawlike potential decreases.
               ( 0 < eopreg < 1 )

eamp           REAL ( default = 0.001 a.u. )
               Amplitude of the electric field (in a.u.) 
	       ( 1 a.u. = 51.44 10^10 V/m )

noncolin       LOGICAL
               if .true. the program will perform a noncollinear calculation.
               DEFAULT: .false.

angle1(i)      REAL
               The angle expressed in degrees between the initial 
               magnetization and the z-axis. I runs over the atom types.

angle2(i)      REAL
               The angle expressed in degrees between the projection
               of the initial magnetization on x-y plane and the x-axis.

constrained_magnetization CHARACTER ( defalt = 'none' ) 
               Used to perform constrained calculations in magnetic systems
               Currently available choices:
               `none` : no constraint
               `total`: total magnetization is constrained
                        If nspin=4 (noncolin=.True.) constraint is imposed by
                        adding a penalty functional to the total energy: 
     - LAMBDA * SUM_{i} ( magnetization(i) - fixed_magnetization(i) )**2
                        where the sum over i runs over the three components of
                        the magnetization. Lambda is a real number (see below). 
                        If nspin=2 constraint is imposed by defining two Fermi
                        energies for spin up and down.
                        Only fixed_magnetization(3) can be defined in this case.
               `atomic`: atomic magnetization are constrained to the defined 
                        starting magnetization adding a penalty
     - LAMBDA * SUM_{i,itype} ( magnetic_moment(i,itype) - mcons(i,itype) )**2
                        where i runs over the components (1-3) and itype over 
                        the types (1-ntype).  
                        mcons(:,:) array is defined from starting_magnetization,
                        angle1 and angle2 variables. lambda is a real number
               `atomic direction`: not all the components of the atomic 
                        magnetic moment are constrained but only the cosinus 
                        of angle1, and the penalty functional is:
     - LAMBDA * SUM_{itype} ( mag_mom(3,itype)/mag_mom_tot - cos(angle1(ityp) )**2

fixed_magnetization(3)  REAL (default 0.d0)
               value of the total magnetization to be mantained fixed when 
               constrained_magnetization='total'

B_field(3)     REAL (default = 0.d0)
               A fixed magnetic field defined by the vector B_field is added 
               to the exchange and correlation magnetic field. 
               The three components of the magnetic field are given in Ry.
               Only B_field(3) can be used if nspin=2.

               In all calculations with a finite magnetic field,
               we print the total energy WITHOUT the B dot M term.
               In the calculations with the penalty functional we write
               only the total energy, NOT the penalty functional.

lambda         REAL
               parameter used for constrained_magnetization calculations
               NB: LAMBDA is reduced in the first iterations and is increased 
                   slowly up to the input value.

report         INTEGER
               It's the number of iterations after which the program
               write all the atomic magnetic moments.

lspinorb       LOGICAL
               if .TRUE. the noncollinear code can use a pseudopotential with
               spin-orbit.

===============================================================================
NAMELIST &ELECTRONS

electron_maxstep  
               INTEGER ( default = 100 )
               maximum number of iterations in a scf step

conv_thr       REAL  ( default = 1.D-6 )
               Convergence threshold for selfconsistency: 
               estimated energy error < conv_thr

mixing_mode    CHARACTER
               'plain' :    charge density Broyden mixing ( default )
               'TF' :       as above, with simple Thomas-Fermi screening
                            (for highly homogeneous systems)
               'local-TF':  as above, with local-density-dependent TF screening
                            (for highly inhomogeneous systems)

mixing_beta    REAL ( default = 0.7D0 )
               mixing factor for self-consistency 

mixing_ndim    INTEGER ( default = 8)
               number of iterations used in mixing scheme

mixing_fixed_ns   
               INTEGER ( default = 0 )
               For LDA+U : number of iterations with fixed ns ( ns is the
               atomic density appearing in the Hubbard term ) 

diagonalization   
               CHARACTER
               'david':  Davidson iterative diagonalization with overlap matrix
                         (default)
               'diis' :  DIIS-like diagonalization
               'cg' :    conjugate-gradient-like band-by-band diagonalization

diago_thr_init     
               REAL  ( default = 1.D-2 )
               Convergence threshold for the firts iterative diagonalization.
               The threshold (ethr) is automatically updated along the
               self consistency loop.

diago_cg_maxiter  
               INTEGER
               For conjugate gradient diagonalization:
               max number of iterations

diago_david_ndim  
               INTEGER ( default = 4 )
               For Davidson diagonalization: dimension of workspace 
               (number of wavefunction packets, at least 2 needed). 
               A larger value may yield a faster algorithm but uses 
               more memory

diago_diis_ndim   
               INTEGER ( default = 3 )
               For DIIS: dimension of the reduced space.

efield         REAL ( default = 0.D0 )
               For finite electric field calculations (lelfield == .true.), 
               it defines the intensity of the field in a.u.

startingpot    CHARACTER
               'atomic': starting potential from atomic charge superposition
                         ( default for scf, *relax, *md, neb, smd )
               'file'  : start from existing "prefix".pot file
                         ( default and only possibility for nscf and phonon )

startingwfc    CHARACTER
               'atomic': start from superposition of atomic orbitals ( default )
                         If not enough atomic orbitals are available,
                         fill with random numbers the remaining wfcs
               'random': start from random wfcs
               'file':   start from a wavefunction file
               

===============================================================================
NAMELIST &IONS  ( only if calculation = 'relax', 'md', 
                                        'vc-relax', 'vc-md', 'neb' )

ion_dynamics   CHARACTER
               specify the type of ionic dynamics. 
               For different type of calculation different possibilities are 
               allowed and different default values apply:
               
	       CASE ( calculation = 'relax' )
                 'bfgs' :   (default)   a new BFGS quasi-newton algorithm, based
                                        on the trust radius procedure, is used 
                                        for structural relaxation (experimental)
		 'damp' :               use damped (quick-min Verlet) 
                                        dynamics for structural relaxation
                 'constrained-damp' :   use damped (quick-min Verlet) 
                                        dynamics for structural relaxation with 
                                        the constraint specified in the 
                                        CONSTRAINTS CARD
               CASE ( calculation = 'md' )
                 'verlet' : (default)   use Verlet algorithm to integrate 
		                        Newton's equation
                 'constrained-verlet' : use Verlet algorithm to perform 
                                        molecular dynamics with the constraint
                                        specified in the CONSTRAINTS CARD 
               CASE ( calculation = 'vc-relax' )
                 'damp' :   (default)   use damped (Beeman) dynamics for 
		                        structural relaxation
               CASE ( calculation = 'vc-md' )
                 'beeman' : (default)   use Beeman algorithm to integrate 
                                        Newton's equation

phase_space    CHARACTER ( defauld = 'full' )
               'full' :           the full phase-space is used for the ionic 
                                  dynamics.
               'coarse-grained' : a coarse-grained phase-space, defined by a set
                                  of constraints, is used for the ionic dynamics
                                  (used for calculation of free-energy barriers)

ion_temperature   
               CHARACTER
               'rescaling'     : velocity rescaling
               'not_controlled': default

tempw          REAL ( default = 300.D0 )
               starting temperature (Kelvin) in MD runs 

tolp           REAL ( default = 1.D-3 )
               tolerance for velocity rescaling. Velocities are
               not rescaled if the ratio of the run-averaged and
               target temperature differs from unit less than tolp.
               This keyword is used only in the case of variable cell
               calculations.

delta_t        REAL ( default = 1.D0 )
               delta_t = 1                 : every 'nraise' step the actual 
                                             temperature is rescaled to tempw
               delta_t /= 1 && delta_T > 0 : at each step the temperature is 
                                             multiplied by delta_t; this is 
                                             done rescaling all the velocities.
               delta_t < 0                 : every 'nraise' steps temperature
                                             is reduced by -delta_T
               This keyword is NOT used in the case of variable cell
               calculations.

nraise         INTEGER (default = 100 )
               the temperature is reduced of -delta_T every 'nraise' steps.
               This keyword is NOT used in the case of variable cell
               calculations.

pot_extrapolation     
               CHARACTER ( default = "atomic" )
               used to extrapolate the potential from preceding ionic steps
               'none'        :  no extrapolation
               'atomic'      :  extrapolate the potential as if it was a sum of
                                atomic-like orbitals 
               'first_order'  :  extrapolate the potential with first-order 
                                formula
               'second_order':  as above, with second order formula

wfc_extrapolation     
               CHARACTER ( default = "none" )
               used to extrapolate the wavefunctions from preceding ionic steps
               'none'        :  no extrapolation
               'first_order'  :  extrapolate the wave-functions with first-order
                                formula
               'second_order':  as above, with second order formula

!
! ... keywords used only in BFGS calculations
!

upscale        REAL ( default = 10.D0 )
               max reduction factor for conv_thr during structural optimization
               conv_thr is automatically reduced when the relaxation 
               approaches convergence so that forces are still accurate,
               but conv_thr will not be reduced to less that 
               conv_thr / upscale

bfgs_ndim      INTEGER ( default = 1 )
               number of old forces and displacements vectors used in the
	       PULAY mixing of the residual vectors obtained on the basis
               of the inverse hessian matrix given by the BFGS algorithm.
               When bfgs_ndim = 1, the standard quasi-Newton BFGS method is
               used.
               (bfgs only)

trust_radius_max
               REAL ( default = 0.8D0 ) 
               maximum ionic displacement in the structural relaxation 
	       (bfgs only)

trust_radius_min
               REAL ( default = 1.D-3 )
	       minimum ionic displacement in the structural relaxation
               BFGS is reset when trust_radius < trust_radius_min
	       (bfgs only)

trust_radius_ini
               REAL ( default = 0.5D0 )
               initial ionic displacement in the structural relaxation
               (bfgs only)

w_1, w_2
               REAL ( w_1 = 0.01D0, w_2 = 0.5D0 )
	       parameters used in line search based on the Wolfe conditions
	       (bfgs only)

!
! ... keywords used only in NEB and SMD calculations
!

num_of_images  INTEGER ( default = 0 )
               number of points used to discrtize the path 
               (it must be larger than 3)

opt_scheme     
               CHARACTER ( default = "quick-min" )
               specify the type of optimization scheme      
               "sd"         : steepest descent
               "broyden"    : quasi-Newton Broyden's second method (suggested)
	       "quick-min"  : a minimization algorithm based on
	                      molecular dynamics
               "damped-dyn" : damped molecular dynamics. See also the 
	                      keyword damp
               "mol-dyn"    : constant temperature molecular dynamics. See 
	                      also the keyword temp_req.
	                      Note that, in order to perform such molecular 
			      dynamics, spring forces are NOT projected 
			      along the path.
               "langevin"   : finite temperature langevin dynamics of the 
                              string (smd only). It is used to compute the
                              average path and the free-energy profile.

CI_scheme      CHARACTER. ( default = "no-CI" )
               specify the type of Climbing Image scheme
               "no-CI"      : climbing image is not used
               "highest-TS" : original CI scheme. The image highest in energy 
	                      does not feel the effect of springs and is 
			      allowed to climb along the path
               "manual"     : images that have to climb are manually selected. 
	                      See also CLIMBING_IMAGES card 

first_last_opt LOGICAL ( default = .FALSE. )
               also the first and the last configurations are optimised