    26
 Wannier centres, written by Wannier90 on16Sep2025 at 20:53:31 
X         -1.23814103       5.76821031       5.13847211
X         -1.39639106       5.80990265       5.21701297
X         -1.13436270       5.70098172       5.19380123
X          2.29621109       4.25134510       5.21698378
X          2.07084778       4.07889453       5.19380918
X          2.18101855       4.13515792       5.13849576
X         -0.94284427       1.99063479       5.13846809
X         -0.93651642       2.11411454       5.19379986
X         -0.89982690       1.83273295       5.21701797
X          1.23814121       2.16111816       1.46386121
X          1.39639118       2.11942589       1.38532043
X          1.13436285       2.22834685       1.40853209
X          4.57078879       3.67798338       1.38534959
X          4.79615215       3.85043395       1.40852412
X          4.68598127       3.79417057       1.46383755
X          4.37634430      -0.00830241       1.46386523
X          4.37001634      -0.13178230       1.40853342
X          4.33332689       0.14959933       1.38531544
Cr         0.00000000       3.96466430       0.00680040
Cr         0.00000000       3.96466430       6.59553293
I         -1.20958771       5.84849436       5.03824057
I          2.23623855       4.07028296       5.03824057
I         -1.02665084       1.97521558       5.03824057
I          1.20958771       2.08083423       1.56409277
I          4.63076145       3.85904564       1.56409277
I          4.46015084       0.00711657       1.56409277
