SiC
 &inputph
  outdir='./',
  prefix='sic',
  tr2_ph=1.0d-18,
  lmultipole = .true.
  fildrho = 'drho.dat.03'
  fildvscf = 'drhodv.dat.03'
 /
   0.030000000144533    0.010000000048178    0.010000000048178
