SiC
 &inputph
  outdir='./',
  prefix='sic',
  tr2_ph=1.0d-18,
  lmultipole = .true.
  fildrho = 'drho.dat.03'
  fildvscf = 'drhodv.dat.03'
 /
  -0.003535533905933   -0.010606601717798    0.003535533905933
