SiC
 &inputph
  outdir='./',
  prefix='sic',
  tr2_ph=1.0d-18,
  lmultipole = .true.
  fildrho = 'drho.dat.08'
  fildvscf = 'drhodv.dat.08'
 /
  -0.003535533905933    0.003535533905933    0.003535533905933
