SiC
 &inputph
  outdir='./',
  prefix='sic',
  tr2_ph=1.0d-18,
  lmultipole = .true.
  fildrho = 'drho.dat.07'
  fildvscf = 'drhodv.dat.07'
 /
  -0.010606601717798   -0.003535533905933   -0.003535533905933
