 &control
    calculation     = 'nscf'
    prefix          = 'diam'
    pseudo_dir      = './'
    outdir          = './'
    wf_collect      = .true.
    verbosity       = 'high'
 /
 &system
    ibrav           = 2
    celldm(1)       = 6.64245
    nat             = 2
    ntyp            = 1
    ecutwfc         = 40
    occupations     = 'smearing'
    smearing        = 'mp'
    degauss         = 0.02
    nbnd            = 4
 /
 &electrons
    diagonalization = 'david'
    mixing_beta     =  0.7
    conv_thr        =  1.0d-10
 /
ATOMIC_SPECIES
  C  12.01078  C_3.98148.UPF
ATOMIC_POSITIONS alat
  C   0.00  0.00  0.00
  C   0.25  0.25  0.25
K_POINTS crystal
8
0.0 0.0 0.0 0.125
0.5 0.0 0.0 0.125
0.0 0.5 0.0 0.125
0.0 0.0 0.5 0.125
0.5 0.5 0.0 0.125
0.5 0.0 0.5 0.125
0.0 0.5 0.5 0.125
0.5 0.5 0.5 0.125
