--
&inputph
  prefix   = 'diam',
  epsil    = .false.,
  outdir   = './'
  fildyn   = 'diam.dyn',
  ldisp    = .true.
  fildvscf = 'dvscf'
  nq1=2,
  nq2=2,
  nq3=2,
  tr2_ph   =  1.0d-12,
 /

