 &control
    calculation='nscf'
    restart_mode='from_scratch',
    pseudo_dir = '/pseudo/',
    outdir='./'
    prefix='silicon'
    tstress = .true.
    tprnfor = .true. 
/
 &system
 ibrav=2,celldm(1) =  30.6136005, nat=  54, ntyp= 1, nbnd= 216,
ecutwfc = 40
nosym =.true.
/
 &electrons
    diagonalization='david'
    mixing_beta = 0.7
    conv_thr = 5D-7
 /
ATOMIC_SPECIES
 Si 28.0855 Si.pz-n-kjpaw_psl.0.1.UPF 
K_POINTS automatic
12 12 12 0 0 0
ATOMIC_POSITIONS {angstrom}
   Si    0.12061728  -0.03584178  -0.03172583
   Si    1.38372475   1.42388608   1.38916342
   Si   -2.68506430  -0.03674740   2.65744657
   Si   -1.35863262   1.36196364   4.01198759
   Si   -5.40270450  -0.01513003   5.38192416
   Si   -4.18321499   1.39811775   6.80318624
   Si    0.04016448   2.68090249   2.72218245
   Si    1.36526143   4.02906104   4.04372525
   Si   -2.74316652   2.79971368   5.52015446
   Si   -1.40913687   4.03938579   6.86559646
   Si   -5.42838238   2.78690250   8.14465026
   Si   -4.03435691   4.03756250   9.52615008
   Si    0.03107517   5.36137889   5.43451086
   Si    1.34352491   6.70984837   6.73015172
   Si   -2.70996413   5.45765199   8.04009723
   Si   -1.34683896   6.70014225   9.47223321
   Si   -5.44854808   5.44125000  10.80457949
   Si   -4.08097174   6.84219997  12.11923656
   Si   -2.72134840   2.71945449  -0.03658077
   Si   -1.30577392   4.09106162   1.37368884
   Si   -5.34074650   2.65204284   2.66416996
   Si   -4.12352024   4.02811748   4.08837611
   Si   -8.07205289   2.66120530   5.34765530
   Si   -6.77598665   4.07541097   6.69846499
   Si   -2.67928786   5.31417984   2.70867946
   Si   -1.34501384   6.70314646   4.04726601
   Si   -5.39406444   5.42865852   5.41406664
   Si   -4.02012620   6.72900824   6.74605433
   Si   -8.03430302   5.37558570   8.16001877
   Si   -6.75528357   6.74898810   9.43136480
   Si   -2.74778547   8.07097057   5.35893424
   Si   -1.30463108   9.49782861   6.79307222
   Si   -5.33233483   8.03999070   8.14154575
   Si   -3.96579556   9.40527207   9.35809893
   Si   -8.16826448   8.00015387  10.71155897
   Si   -6.74723912   9.39587966  12.04749804
   Si   -5.35039719   5.38385129   0.05072405
   Si   -3.97917387   6.81050315   1.34330871
   Si   -8.10266139   5.40616062   2.73904242
   Si   -6.78877099   6.83281070   3.99925592
   Si  -10.86134166   5.39585073   5.29386053
   Si   -9.50988771   6.64716866   6.74569851
   Si   -5.38840400   8.15952804   2.68686297
   Si   -3.98147225   9.45844007   4.08079666
   Si   -8.19067379   8.13226426   5.39017859
   Si   -6.76147282   9.44177130   6.72130845
   Si  -10.83105528   8.11475218   8.03531069
   Si   -9.53516357   9.44235937   9.48252541
   Si   -5.36361848  10.83028742   5.43607751
   Si   -4.09394811  12.15776936   6.74914253
   Si   -8.08847937  10.79949296   8.08119391
   Si   -6.74289116  12.08353769   9.55474990
   Si  -10.76162555  10.82414328  10.78842744
   Si   -9.43909728  12.21050558  12.18275459
