 &control
    calculation='scf'
    restart_mode='from_scratch',
    prefix='Fe'
    pseudo_dir = '/scratch/obaseggi/q-e-develop/pseudo/'
    outdir='/scratch/obaseggi/q-e-develop/tempdir/'
 /
 &system
    nosym           = .true.
    noinv           = .true.
    noncolin        = .true.
    lspinorb        = .false.
    ibrav           = 3
    celldm(1)       = 5.406
    nat             = 1
    ntyp            = 1
    ecutwfc         = 20
    occupations     = 'smearing'
    smearing        = 'gaussian'
    degauss         = 0.02
    starting_magnetization(1) = 0.15
 /
 &electrons
    diagonalization = 'david'
    mixing_mode     = 'plain'
    mixing_beta     = 0.3
    conv_thr        = 1.d-12
    electron_maxstep = 200
 /
ATOMIC_SPECIES
Fe  55.85   Fe.lda-pseudoDojo.UPF
ATOMIC_POSITIONS alat
Fe  0.00000000 0.00000000 0.00000000
K_POINTS automatic
 3 3 3 0 0 0
