&inputpp 
   outdir = '/home/paulatto/espresso/tempdir/'
   prefix = 'di'
/
