 &control
    title = ' Water Molecule ',
    calculation = 'cp',
    restart_mode = 'restart',
    ndr = 51,
    ndw = 51,
    nstep  = 50,
    iprint = 10, 
    isave  = 100,
    tstress = .TRUE.,
    tprnfor = .TRUE.,
    dt    = 5.0d0,
    etot_conv_thr = 1.d-9,
    ekin_conv_thr = 1.d-4,
    prefix = 'h2o_mol'
    pseudo_dir='/home/ballabio/O-sesame/pseudo/',
    outdir='/home/ballabio/tmp/intel/',
 /
 &system
    ibrav = 14, 
    celldm(1) = 12.0, 
    celldm(2) = 1.0, 
    celldm(3) = 1.0, 
    celldm(4) = 0.0, 
    celldm(5) = 0.0, 
    celldm(6) = 0.0, 
    nat  = 3,
    ntyp = 2,
    nbnd = 4,
    nelec = 8,
    ecutwfc = 80.0,
    nr1b= 10, nr2b = 10, nr3b = 10,
    xc_type = 'BLYP'
 /
 &electrons
    emass = 400.d0,
    emass_cutoff = 2.5d0,
    orthogonalization = 'ortho',
    ortho_eps = 5.d-8,
    ortho_max = 15,
    electron_dynamics = 'sd',
    ! electron_damping = 0.3,
    electron_velocities = 'zero',
    electron_temperature = 'not_controlled',
 /
 &ions
    ion_dynamics = 'none',
    ion_damping = 0.2,
    ion_radius(1) = 0.8d0,
    ion_radius(2) = 0.8d0,
    ion_velocities = 'zero',
    ion_temperature = 'not_controlled',
    ! ion_nstepe = 10
 /
 &cell
    cell_dynamics = 'none',
    cell_velocities = 'zero',
    press = 0.0d0,
 /
ATOMIC_SPECIES
 O 16.0d0 O.BLYP.UPF 4
 H 1.00d0 H.fpmd.UPF 4
ATOMIC_POSITIONS (bohr)
   O     0.0099    0.0099    0.0000  0 0 0
   H     1.8325   -0.2243   -0.0001  1 1 1
   H    -0.2243    1.8325    0.0002  1 1 1
