 &control
    calculation='relax'
    title='Al 001 7 layers +  4 vacuum'
    restart_mode='from_scratch',
    pseudo_dir = '/home/giannozz/O-sesame/pseudo//',
    outdir='/home/giannozz/tmp//'
    disk_io='high',
    dt=120,
    forc_conv_thr =5.d-5,
    nstep = 100
 /
 &system
    ibrav= 6, celldm(1) =5.3033, celldm(3) = 8.0, 
    nat=7, ntyp=1,
    ecutwfc = 12.0,
    occupations='smearing', smearing='methfessel-paxton', degauss=0.05
 /
 &electrons
    conv_thr =  1.0d-6
    mixing_beta = 0.3
 /
 &ions
    ion_dynamics='damp',
    potential_extrapolation='wfc2'
 /
ATOMIC_SPECIES
 Al 26.98 Al.vbc.UPF
ATOMIC_POSITIONS
 Al   0.5000000      0.5000000     -2.121320
 Al   0.0000000      0.0000000     -1.414213
 Al   0.5000000      0.5000000     -0.707107
 Al   0.0000000      0.0000000      0.000000
 Al   0.5000000      0.5000000      0.707107
 Al   0.0000000      0.0000000      1.414213
 Al   0.5000000      0.5000000      2.121320
K_POINTS
 3
 0.125  0.125  0.0  1.0
 0.125  0.375  0.0  2.0
 0.375  0.375  0.0  1.0
