&control
    calculation = 'scf'
    title = 'TDDFPT CH4 Test (TDHF)'
    restart_mode='from_scratch',
    pseudo_dir = '../pseudo',
    outdir='./out',
    prefix='CH4'
 /
 &system
    ibrav = 1,
    celldm(1) = 15,
    nat = 5,
    ntyp = 2,
    ecutwfc  = 25,
    ecutfock = 25,
    input_dft = 'HF',
    nosym=.true.
 /
 &electrons
    diagonalization='david'
    mixing_mode = 'plain'
    mixing_beta = 0.7
    conv_thr =  1.0d-10
 /
ATOMIC_SPECIES
C 1.0 C.pz-vbc.UPF
H 1.0 H.pz-vbc.UPF
ATOMIC_POSITIONS {Angstrom}
C        0.000000000   0.000000000   0.000000000
H        0.642814093   0.642814093   0.642814093
H       -0.642814093  -0.642814093   0.642814093
H        0.642814093  -0.642814093  -0.642814093
H       -0.642814093   0.642814093  -0.642814093
K_POINTS {gamma}

