 &control
    calculation='bands'
    restart_mode='from_scratch',
    prefix='ni',
    pseudo_dir = '/home/pietro/espresso-svn/pseudo/',
    outdir='/home/pietro/espresso-svn/tempdir/'
 /
 &system
    ibrav=2, celldm(1) =6.48, nat=1, ntyp=1,
    nspin = 2,  starting_magnetization(1)=0.7,
    ecutwfc = 24.0, ecutrho = 288.0,
    occupations='smearing', smearing='mv', degauss=0.02
 /
 &electrons
    conv_thr = 1.0e-10
    mixing_beta = 0.7 
 /
ATOMIC_SPECIES
 Ni 58.69 Ni.pz-nd-rrkjus.UPF
ATOMIC_POSITIONS
 Ni 0.0 0.0 0.0
K_POINTS
97
1.000000000 0.000000000 0.000000000 1
0.975000000 0.000000000 0.000000000 2
0.950000000 0.000000000 0.000000000 3
0.925000000 0.000000000 0.000000000 4
0.900000000 0.000000000 0.000000000 5
0.875000000 0.000000000 0.000000000 6
0.850000000 0.000000000 0.000000000 7
0.825000000 0.000000000 0.000000000 8
0.800000000 0.000000000 0.000000000 9
0.775000000 0.000000000 0.000000000 10
0.750000000 0.000000000 0.000000000 11
0.725000000 0.000000000 0.000000000 12
0.700000000 0.000000000 0.000000000 13
0.675000000 0.000000000 0.000000000 14
0.650000000 0.000000000 0.000000000 15
0.625000000 0.000000000 0.000000000 16
0.600000000 0.000000000 0.000000000 17
0.575000000 0.000000000 0.000000000 18
0.550000000 0.000000000 0.000000000 19
0.525000000 0.000000000 0.000000000 20
0.500000000 0.000000000 0.000000000 21
0.475000000 0.000000000 0.000000000 22
0.450000000 0.000000000 0.000000000 23
0.425000000 0.000000000 0.000000000 24
0.400000000 0.000000000 0.000000000 25
0.375000000 0.000000000 0.000000000 26
0.350000000 0.000000000 0.000000000 27
0.325000000 0.000000000 0.000000000 28
0.300000000 0.000000000 0.000000000 29
0.275000000 0.000000000 0.000000000 30
0.250000000 0.000000000 0.000000000 31
0.225000000 0.000000000 0.000000000 32
0.200000000 0.000000000 0.000000000 33
0.175000000 0.000000000 0.000000000 34
0.150000000 0.000000000 0.000000000 35
0.125000000 0.000000000 0.000000000 36
0.100000000 0.000000000 0.000000000 37
0.075000000 0.000000000 0.000000000 38
0.050000000 0.000000000 0.000000000 39
0.025000000 0.000000000 0.000000000 40
0.000000000 0.000000000 0.000000000 41
0.017857142 0.017857142 0.000000000 42
0.035714285 0.035714285 0.000000000 43
0.053571428 0.053571428 0.000000000 44
0.071428571 0.071428571 0.000000000 45
0.089285714 0.089285714 0.000000000 46
0.107142857 0.107142857 0.000000000 47
0.125000000 0.125000000 0.000000000 48
0.142857142 0.142857142 0.000000000 49
0.160714285 0.160714285 0.000000000 50
0.178571428 0.178571428 0.000000000 51
0.196428571 0.196428571 0.000000000 52
0.214285714 0.214285714 0.000000000 53
0.232142857 0.232142857 0.000000000 54
0.250000000 0.250000000 0.000000000 55
0.267857142 0.267857142 0.000000000 56
0.285714285 0.285714285 0.000000000 57
0.303571428 0.303571428 0.000000000 58
0.321428571 0.321428571 0.000000000 59
0.339285714 0.339285714 0.000000000 60
0.357142857 0.357142857 0.000000000 61
0.375000000 0.375000000 0.000000000 62
0.392857142 0.392857142 0.000000000 63
0.410714285 0.410714285 0.000000000 64
0.428571428 0.428571428 0.000000000 65
0.446428571 0.446428571 0.000000000 66
0.464285714 0.464285714 0.000000000 67
0.482142857 0.482142857 0.000000000 68
0.500000000 0.500000000 0.000000000 69
0.517857142 0.517857142 0.000000000 70
0.535714285 0.535714285 0.000000000 71
0.553571428 0.553571428 0.000000000 72
0.571428571 0.571428571 0.000000000 73
0.589285714 0.589285714 0.000000000 74
0.607142857 0.607142857 0.000000000 75
0.625000000 0.625000000 0.000000000 76
0.642857142 0.642857142 0.000000000 77
0.660714285 0.660714285 0.000000000 78
0.678571428 0.678571428 0.000000000 79
0.696428571 0.696428571 0.000000000 80
0.714285714 0.714285714 0.000000000 81
0.732142857 0.732142857 0.000000000 82
0.750000000 0.750000000 0.000000000 83
0.767857142 0.767857142 0.000000000 84
0.785714285 0.785714285 0.000000000 85
0.803571428 0.803571428 0.000000000 86
0.821428571 0.821428571 0.000000000 87
0.839285714 0.839285714 0.000000000 88
0.857142857 0.857142857 0.000000000 89
0.875000000 0.875000000 0.000000000 90
0.892857142 0.892857142 0.000000000 91
0.910714285 0.910714285 0.000000000 92
0.928571428 0.928571428 0.000000000 93
0.946428571 0.946428571 0.000000000 94
0.964285714 0.964285714 0.000000000 95
0.982142857 0.982142857 0.000000000 96
1.000000000 1.000000000 0.000000000 97
