 &projwfc
    outdir='/home/pietro/espresso-svn/tempdir/'
    prefix='ni'
    ngauss=0, degauss=0.036748
    DeltaE=0.01
    kresolveddos=.true.
    filpdos='ni.k'
 /
