 &control
    calculation='scf'
    restart_mode='from_scratch',
    prefix='ni',
    pseudo_dir = '/home/pietro/espresso-svn/pseudo/',
    outdir='/home/pietro/espresso-svn/tempdir/'
 /
 &system
    ibrav=2, celldm(1) =6.48, nat=1, ntyp=1,
    nspin = 2,  starting_magnetization(1)=0.7,
    ecutwfc = 24.0, ecutrho = 288.0,
    occupations='smearing', smearing='mv', degauss=0.02
 /
 &electrons
    conv_thr = 1.0e-10
    mixing_beta = 0.7 
 /
ATOMIC_SPECIES
 Ni 58.69 Ni.pz-nd-rrkjus.UPF
ATOMIC_POSITIONS
 Ni 0.0 0.0 0.0
K_POINTS
  60
   0.0625000  0.0625000  0.0625000   1.00
   0.0625000  0.0625000  0.1875000   3.00
   0.0625000  0.0625000  0.3125000   3.00
   0.0625000  0.0625000  0.4375000   3.00
   0.0625000  0.0625000  0.5625000   3.00
   0.0625000  0.0625000  0.6875000   3.00
   0.0625000  0.0625000  0.8125000   3.00
   0.0625000  0.0625000  0.9375000   3.00
   0.0625000  0.1875000  0.1875000   3.00
   0.0625000  0.1875000  0.3125000   6.00
   0.0625000  0.1875000  0.4375000   6.00
   0.0625000  0.1875000  0.5625000   6.00
   0.0625000  0.1875000  0.6875000   6.00
   0.0625000  0.1875000  0.8125000   6.00
   0.0625000  0.1875000  0.9375000   6.00
   0.0625000  0.3125000  0.3125000   3.00
   0.0625000  0.3125000  0.4375000   6.00
   0.0625000  0.3125000  0.5625000   6.00
   0.0625000  0.3125000  0.6875000   6.00
   0.0625000  0.3125000  0.8125000   6.00
   0.0625000  0.3125000  0.9375000   6.00
   0.0625000  0.4375000  0.4375000   3.00
   0.0625000  0.4375000  0.5625000   6.00
   0.0625000  0.4375000  0.6875000   6.00
   0.0625000  0.4375000  0.8125000   6.00
   0.0625000  0.4375000  0.9375000   6.00
   0.0625000  0.5625000  0.5625000   3.00
   0.0625000  0.5625000  0.6875000   6.00
   0.0625000  0.5625000  0.8125000   6.00
   0.0625000  0.6875000  0.6875000   3.00
   0.0625000  0.6875000  0.8125000   6.00
   0.0625000  0.8125000  0.8125000   3.00
   0.1875000  0.1875000  0.1875000   1.00
   0.1875000  0.1875000  0.3125000   3.00
   0.1875000  0.1875000  0.4375000   3.00
   0.1875000  0.1875000  0.5625000   3.00
   0.1875000  0.1875000  0.6875000   3.00
   0.1875000  0.1875000  0.8125000   3.00
   0.1875000  0.3125000  0.3125000   3.00
   0.1875000  0.3125000  0.4375000   6.00
   0.1875000  0.3125000  0.5625000   6.00
   0.1875000  0.3125000  0.6875000   6.00
   0.1875000  0.3125000  0.8125000   6.00
   0.1875000  0.4375000  0.4375000   3.00
   0.1875000  0.4375000  0.5625000   6.00
   0.1875000  0.4375000  0.6875000   6.00
   0.1875000  0.4375000  0.8125000   6.00
   0.1875000  0.5625000  0.5625000   3.00
   0.1875000  0.5625000  0.6875000   6.00
   0.1875000  0.6875000  0.6875000   3.00
   0.3125000  0.3125000  0.3125000   1.00
   0.3125000  0.3125000  0.4375000   3.00
   0.3125000  0.3125000  0.5625000   3.00
   0.3125000  0.3125000  0.6875000   3.00
   0.3125000  0.4375000  0.4375000   3.00
   0.3125000  0.4375000  0.5625000   6.00
   0.3125000  0.4375000  0.6875000   6.00
   0.3125000  0.5625000  0.5625000   3.00
   0.4375000  0.4375000  0.4375000   1.00
   0.4375000  0.4375000  0.5625000   3.00
