
&inputph
  tr2_ph=1.0d-14,
  prefix='ch4',
  epsil=.true.,
  trans=.false.,
  fpol=.true.,
  amass(1)=12.0107,
  amass(2)=1.00794,
  outdir='/home/giannozz/tmp/',
  fildyn='ch4.dynG',
 /
0.0 0.0 0.0

FREQUENCIES
 2
 0.0d0
 1.5d0
