 &control
    calculation='nscf'
    restart_mode='from_scratch',
    pseudo_dir = '/home1/07369/mzach/codes/pseudo/',
    outdir='./'
    prefix='silicon'
    tstress = .true.
    tprnfor = .true. 
    verbosity ='high'
    disk_io = 'low'
/
 &system
 ibrav=2,celldm(1) =  51.0226675, nat=  250, ntyp= 1, nbnd= 750,
ecutwfc = 40
nosym =.true.
/
 &electrons
    diagonalization='david'
    mixing_beta = 0.7
    conv_thr = 5D-7
 /
ATOMIC_SPECIES
 Si 28.0855 Si.pz-n-kjpaw_psl.0.1.UPF 
ATOMIC_POSITIONS {angstrom}
   Si    0.02255646   0.00326651  -0.11749094
   Si    1.35258914   1.34628173   1.34272342
   Si   -2.68412569   0.01036983   2.70344490
   Si   -1.37308062   1.38619615   3.98166930
   Si   -5.39068321   0.03992929   5.46062970
   Si   -4.02531246   1.33438897   6.72120322
   Si   -8.14212418   0.04847467   8.13177116
   Si   -6.76022916   1.26442496   9.45057714
   Si  -10.82452662  -0.02448521  10.77712595
   Si   -9.49125648   1.34936664  12.16313600
   Si   -0.01753392   2.68983181   2.66613281
   Si    1.46847571   4.06080038   4.10514418
   Si   -2.69240003   2.73664096   5.39118247
   Si   -1.38789769   4.03105050   6.75844222
   Si   -5.35814501   2.70206325   8.13231420
   Si   -4.05349757   4.09050106   9.46262949
   Si   -8.05392335   2.60168427  10.77955573
   Si   -6.75987334   4.08153402  12.19399458
   Si  -10.79123634   2.82935986  13.48481979
   Si   -9.44496371   4.04049033  14.95258404
   Si   -0.02139172   5.40392175   5.39422638
   Si    1.40043612   6.78685348   6.76967233
   Si   -2.72304712   5.41135406   8.08251043
   Si   -1.36128898   6.73588467   9.46274146
   Si   -5.41348580   5.41616511  10.86251121
   Si   -4.12449532   6.79340339  12.13702565
   Si   -8.13452670   5.32838947  13.47186665
   Si   -6.72535781   6.70034500  14.85524431
   Si  -10.74893035   5.44541148  16.26306289
   Si   -9.45581888   6.70147417  17.52543016
   Si    0.00129048   8.14309876   8.15522348
   Si    1.43977667   9.43177038   9.48211244
   Si   -2.70232376   8.10461812  10.81198057
   Si   -1.39143328   9.51486182  12.14715417
   Si   -5.31545306   8.10279645  13.50768622
   Si   -4.03880452   9.45667111  14.85440585
   Si   -8.10714722   8.06880358  16.12822584
   Si   -6.72602659   9.40148832  17.52977903
   Si  -10.78763144   8.06434112  18.90549042
   Si   -9.47073077   9.36942542  20.22563579
   Si    0.03769909  10.77366257  10.81115906
   Si    1.33452790  12.13584895  12.14012204
   Si   -2.76528000  10.81703514  13.49051170
   Si   -1.36832828  12.26048462  14.85569188
   Si   -5.46448085  10.73398743  16.15329277
   Si   -4.12682114  12.13989105  17.52178747
   Si   -8.07997038  10.76270386  18.86056317
   Si   -6.85673268  12.21356068  20.27566974
   Si  -10.72977953  10.77693868  21.63231941
   Si   -9.41675069  12.05728655  22.94023175
   Si   -2.68019295   2.72877167   0.04789329
   Si   -1.33129605   4.10023257   1.49315606
   Si   -5.40188912   2.75403607   2.69146876
   Si   -3.98936359   4.05110323   4.11273066
   Si   -8.08078303   2.68767494   5.44330165
   Si   -6.72034684   4.15147055   6.83923782
   Si  -10.85867953   2.71905169   8.06714569
   Si   -9.43509179   4.03285540   9.48904544
   Si  -13.58686555   2.76262148  10.90393562
   Si  -12.17186449   3.94316021  12.14261179
   Si   -2.66921838   5.48360409   2.69369546
   Si   -1.41572697   6.74425162   4.16466346
   Si   -5.40906284   5.40264495   5.49966848
   Si   -4.06963362   6.75902510   6.73006044
   Si   -8.15822599   5.39870263   8.14224172
   Si   -6.74446890   6.70330749   9.44224714
   Si  -10.83464129   5.42200736  10.85207115
   Si   -9.44317506   6.77890892  12.10930395
   Si  -13.43112111   5.38123668  13.51811984
   Si  -12.03971272   6.76135931  14.83223490
   Si   -2.71659488   8.17610366   5.40424421
   Si   -1.35094305   9.45457664   6.78908161
   Si   -5.38372754   8.07593406   8.07715443
   Si   -4.07915101   9.43243187   9.52124643
   Si   -8.06894654   8.10791900  10.80513500
   Si   -6.74113239   9.40896381  12.13148721
   Si  -10.74071940   8.11729440  13.47523880
   Si   -9.42730804   9.49670192  14.85565288
   Si  -13.43568052   8.03039745  16.24054373
   Si  -12.10163599   9.37837555  17.50509698
   Si   -2.75006719  10.79156966   8.08296087
   Si   -1.34589448  12.05274933   9.52744066
   Si   -5.39324835  10.73591647  10.78781197
   Si   -3.96539755  12.16787903  12.09205553
   Si   -8.06076615  10.80649059  13.47851396
   Si   -6.75999814  12.17793422  14.76603598
   Si  -10.82972922  10.81409623  16.23974926
   Si   -9.40414453  12.11540111  17.58430930
   Si  -13.52522600  10.74817648  18.83849156
   Si  -12.20164710  12.13888399  20.23301468
   Si   -2.73823045  13.53809979  10.78932583
   Si   -1.39829634  14.92336096  12.14892656
   Si   -5.37930384  13.54049404  13.40235266
   Si   -4.00166163  14.88654977  14.80286799
   Si   -8.12374771  13.50310621  16.17438422
   Si   -6.80103889  14.86345967  17.46297281
   Si  -10.87334760  13.44830111  18.94831964
   Si   -9.52390706  14.83538982  20.14956475
   Si  -13.55521344  13.43773339  21.60919499
   Si  -12.15112002  14.81053226  22.95804017
   Si   -5.38122177   5.50136010   0.05980790
   Si   -4.01479402   6.83229085   1.32035733
   Si   -8.05234786   5.41860581   2.66959225
   Si   -6.75042607   6.72443540   3.98179691
   Si  -10.76301146   5.37973871   5.38225005
   Si   -9.44939325   6.81043584   6.70758723
   Si  -13.50380247   5.44158901   8.02009164
   Si  -12.07990617   6.74476547   9.45898250
   Si  -16.19048181   5.40407657  10.78139203
   Si  -14.84294653   6.72936776  12.16140215
   Si   -5.41725822   8.16241492   2.74029453
   Si   -4.09748062   9.56018355   4.03273542
   Si   -8.02602605   8.08529322   5.30979464
   Si   -6.71406077   9.37644341   6.72167633
   Si  -10.80031906   8.05759717   8.05254901
   Si   -9.41572835   9.51237476   9.35221146
   Si  -13.58285505   8.08176362  10.70712378
   Si  -12.14334349   9.44368915  12.07623119
   Si  -16.18610880   8.10834322  13.45263848
   Si  -14.80133142   9.51374584  14.89849431
   Si   -5.46747820  10.81567712   5.32754599
   Si   -4.03726244  12.18529263   6.68747003
   Si   -7.91940582  10.73262431   8.09871864
   Si   -6.72197541  12.18890551   9.39797800
   Si  -10.79516353  10.75618941  10.74426969
   Si   -9.39669230  12.21119568  12.16836377
   Si  -13.45860848  10.79246393  13.44983082
   Si  -12.11810140  12.15956228  14.90452359
   Si  -16.14076732  10.88466272  16.23927092
   Si  -14.76856270  12.22147556  17.52934017
   Si   -5.32767575  13.57516023   8.11893771
   Si   -4.02809653  14.91991368   9.48605293
   Si   -8.02278659  13.48947764  10.78063687
   Si   -6.72584498  14.90804417  12.16904293
   Si  -10.79831747  13.47074216  13.44869584
   Si   -9.42726344  14.84564676  14.81946444
   Si  -13.44727655  13.58647414  16.10858872
   Si  -12.15884589  14.84547592  17.56180595
   Si  -16.17777038  13.46240386  18.83680607
   Si  -14.86686546  14.81168777  20.28364976
   Si   -5.40536687  16.10713893  10.83223978
   Si   -4.14457031  17.61544249  12.14122278
   Si   -8.16243731  16.29022628  13.49902222
   Si   -6.68704034  17.63874386  14.80909691
   Si  -10.79615239  16.15314582  16.29857490
   Si   -9.47863857  17.48355800  17.56310444
   Si  -13.53539395  16.15900742  18.96781155
   Si  -12.19726624  17.62586661  20.15109982
   Si  -16.19918275  16.21959511  21.64069648
   Si  -14.85640928  17.57987458  22.97461425
   Si   -8.08752175   8.14870238  -0.04519574
   Si   -6.80248032   9.42917893   1.36171039
   Si  -10.78582473   8.08381051   2.75080488
   Si   -9.48447088   9.42282330   4.11260592
   Si  -13.55398766   8.16818903   5.34884798
   Si  -12.17364013   9.46945639   6.77347397
   Si  -16.21927225   7.98611613   8.10529961
   Si  -14.94525325   9.50693024   9.44844511
   Si  -18.88250539   8.06881359  10.81934450
   Si  -17.54971131   9.43643971  12.11039001
   Si   -8.20692875  10.73456085   2.68113711
   Si   -6.69368737  12.19374977   3.95192593
   Si  -10.80719945  10.81589495   5.45347620
   Si   -9.44945781  12.13676994   6.78624042
   Si  -13.63727689  10.81838915   8.17621667
   Si  -12.16364122  12.12975218   9.41811990
   Si  -16.21575264  10.78652495  10.85601228
   Si  -14.78492753  12.13058307  12.16890437
   Si  -18.85553125  10.80708675  13.55936086
   Si  -17.44615642  12.22638085  14.86143582
   Si   -8.07915114  13.53132599   5.33473158
   Si   -6.80555635  14.88022740   6.69880432
   Si  -10.84323984  13.43349335   8.09718714
   Si   -9.42485325  14.85207176   9.42918448
   Si  -13.48714899  13.43822590  10.81295972
   Si  -12.14224986  14.88055069  12.17279938
   Si  -16.19178768  13.52771538  13.40451366
   Si  -14.91588043  14.78875695  14.75369679
   Si  -18.93130385  13.53378407  16.09498943
   Si  -17.54591864  14.82531723  17.48926742
   Si   -8.08632764  16.20385570   8.10224396
   Si   -6.75113284  17.49013828   9.46000126
   Si  -10.70312478  16.20743572  10.79090688
   Si   -9.40983514  17.62930047  12.22962593
   Si  -13.47376054  16.14128111  13.53701507
   Si  -12.11172975  17.49551677  14.89520640
   Si  -16.16682071  16.20762423  16.07468409
   Si  -14.89505449  17.50874590  17.54338494
   Si  -18.86449278  16.09331414  18.92214846
   Si  -17.59500483  17.55559402  20.13373147
   Si   -8.12868399  18.92616629  10.80568728
   Si   -6.72170303  20.20530754  12.12659937
   Si  -10.80719175  19.03854478  13.57867700
   Si   -9.45883057  20.22720577  14.84555535
   Si  -13.59007409  18.88561351  16.23804683
   Si  -12.21743166  20.22927718  17.56684839
   Si  -16.18833908  18.87694841  18.93886118
   Si  -14.82881536  20.29828842  20.32204965
   Si  -18.89028174  18.80847841  21.57053116
   Si  -17.61416353  20.14059404  22.94633469
   Si  -10.93133764  10.83366388   0.03187847
   Si   -9.46714499  12.12262041   1.32769053
   Si  -13.54702634  10.86040721   2.71859856
   Si  -12.11614508  12.13083832   4.12386620
   Si  -16.25681494  10.77752319   5.35634582
   Si  -14.89672872  12.10515205   6.66576263
   Si  -18.90521227  10.80382808   8.06396312
   Si  -17.56606024  12.08529213   9.49119411
   Si  -21.59879239  10.77760026  10.82522792
   Si  -20.16080156  12.06058142  12.17427427
   Si  -10.78377550  13.39418455   2.70815974
   Si   -9.48497931  14.83119171   4.06982711
   Si  -13.53534856  13.58617339   5.37774243
   Si  -12.14582373  14.76731932   6.78924929
   Si  -16.22216886  13.44235186   8.08963680
   Si  -14.84652647  14.84534962   9.45812523
   Si  -18.87102816  13.46992335  10.94819844
   Si  -17.55247650  14.88524801  12.15465773
   Si  -21.55658674  13.44696801  13.48894579
   Si  -20.20324439  14.80615595  14.83047479
   Si  -10.76871663  16.16630151   5.43892505
   Si   -9.44244129  17.58558768   6.82584051
   Si  -13.37158170  16.16037154   8.12833179
   Si  -12.10746448  17.57060101   9.46028889
   Si  -16.18572568  16.22577919  10.83019552
   Si  -14.81373564  17.53303364  12.21510728
   Si  -18.95469252  16.21891497  13.48521879
   Si  -17.63123657  17.60079520  14.77230002
   Si  -21.72639784  16.20640787  16.14183254
   Si  -20.35439771  17.47366430  17.53247385
   Si  -10.77473914  18.98674348   8.06562966
   Si   -9.52373816  20.20081081   9.40168850
   Si  -13.44177528  18.90891551  10.88741705
   Si  -12.18792428  20.34544741  12.22908481
   Si  -16.21477001  18.89569819  13.46974520
   Si  -14.95033555  20.27396183  14.90451665
   Si  -18.89609955  18.93219652  16.23809717
   Si  -17.58419352  20.20899475  17.55579109
   Si  -21.59252076  18.97169498  18.90114272
   Si  -20.13261559  20.20144239  20.30260170
   Si  -10.82284189  21.52715856  10.82122800
   Si   -9.51132301  22.97552415  12.21294313
   Si  -13.58266156  21.60035347  13.52938436
   Si  -12.24015104  22.95567668  14.87087739
   Si  -16.25778612  21.59434654  16.23279627
   Si  -14.77115889  22.90127762  17.48530526
   Si  -18.84810910  21.62569970  18.92554001
   Si  -17.49478183  22.95519125  20.25193017
   Si  -21.54255484  21.57841867  21.56870987
   Si  -20.23470931  22.89957504  22.94344551
K_POINTS crystal
43
          0.4285714   0.0000000  -0.1428571 1
          0.4285714   0.1428571   0.0000000 1
          0.4285714   0.1428571   0.1428571 1
          0.4285714   0.1428571   0.2857143 1
          0.4285714   0.1428571   0.4285714 1
          0.4285714   0.1428571  -0.4285714 1
          0.4285714   0.1428571  -0.2857143 1
          0.4285714   0.1428571  -0.1428571 1
          0.4285714   0.2857143   0.0000000 1
          0.4285714   0.2857143   0.1428571 1
          0.4285714   0.2857143   0.2857143 1
          0.4285714   0.2857143   0.4285714 1
          0.4285714   0.2857143  -0.4285714 1
          0.4285714   0.2857143  -0.2857143 1
          0.4285714   0.2857143  -0.1428571 1
          0.4285714   0.4285714   0.0000000 1
          0.4285714   0.4285714   0.1428571 1
          0.4285714   0.4285714   0.2857143 1
          0.4285714   0.4285714   0.4285714 1
          0.4285714   0.4285714  -0.4285714 1
          0.4285714   0.4285714  -0.2857143 1
          0.4285714   0.4285714  -0.1428571 1
          0.4285714  -0.4285714   0.0000000 1
          0.4285714  -0.4285714   0.1428571 1
          0.4285714  -0.4285714   0.2857143 1
          0.4285714  -0.4285714   0.4285714 1
          0.4285714  -0.4285714  -0.4285714 1
          0.4285714  -0.4285714  -0.2857143 1
          0.4285714  -0.4285714  -0.1428571 1
          0.4285714  -0.2857143   0.0000000 1
          0.4285714  -0.2857143   0.1428571 1
          0.4285714  -0.2857143   0.2857143 1
          0.4285714  -0.2857143   0.4285714 1
          0.4285714  -0.2857143  -0.4285714 1
          0.4285714  -0.2857143  -0.2857143 1
          0.4285714  -0.2857143  -0.1428571 1
          0.4285714  -0.1428571   0.0000000 1
          0.4285714  -0.1428571   0.1428571 1
          0.4285714  -0.1428571   0.2857143 1
          0.4285714  -0.1428571   0.4285714 1
          0.4285714  -0.1428571  -0.4285714 1
          0.4285714  -0.1428571  -0.2857143 1
          0.4285714  -0.1428571  -0.1428571 1
