 &control
    calculation='nscf'
    restart_mode='from_scratch',
    pseudo_dir = '/home/giannozz/trunk/espresso/pseudo/',
    outdir = '/home/giannozz/trunk/espresso/tempdir/',
    prefix='per'
    verbosity = 'high'
    wf_collect = .true.
 /
 &system
    ibrav = 4,
    celldm(1) = 4.723553684826,
    celldm(3) = 10.0,
    nat= 3,
    ntyp= 1,
    ecutwfc = 25.0,
    ecutrho = 200.0,
    occupations='smearing',
    smearing='mv',
    degauss=0.005
    starting_magnetization(1)=1.0,
    noncolin = .true.
    lspinorb = .true.
    angle1(1) = 0, 
    angle2(1) = 0,
    lforcet = .true.
    nosym = .true.
 /
 &electrons
    startingpot = 'file'
    diago_thr_init = 1.d-14
    mixing_mode = 'local-TF'
    mixing_beta = 0.7
 /
 &ions
 /
ATOMIC_SPECIES
Co 58.933  CorelUSPBE.RRKJ3.UPF
ATOMIC_POSITIONS {angstrom}
Co       1.249798200   0.721571500   0.000000000
Co       0.000000000   0.000000000   2.019286000
Co       1.249798200   0.721571500   4.038572000
K_POINTS (automatic)
4 4 1 1 1 0
