 &projwfc
    outdir = '/home/giannozz/trunk/espresso/tempdir/',
    prefix='per'
    Emin = -25.0
    Emax=25.0
    DeltaE=0.01
    degauss = 0.005
    ngauss = -1
    lsym = .false.
    filproj = 'eband_per.dat'
    ef_0 = -0.481064464641450
    lforcet = .true.
 /
