Anharm at the X-point
&inputph
   prefix = 'si', 
   fildrho = 'si.drho_X',
   fild0rho = 'si.drho_G',
   amass(1) = 28.0855,
   outdir = '/home/stefano/O3/tmp//',
   fildyn = 'si.anh_X',
 /
0.0 0.0 1.0
