 &control
    calculation='phonon',
    restart_mode='from_scratch',
    tstress = .true.
    tprnfor = .true.
    prefix='si',
    pseudo_dir = '/home/stefano/O3/O-sesame/pseudo//',
    outdir='/home/stefano/O3/tmp//'
 /
 &system    
    nosym = .false.,
    ibrav=  2, celldm(1) =10.20, nat=  2, ntyp= 1,
    ecutwfc =24.0
 /
 &electrons
    conv_thr =  1.0d-8
    mixing_beta = 0.7
 /
 &PHONON
    xqq(1) = 0.0, xqq(2) = 0.0, xqq(3)= 1.0
 /
ATOMIC_SPECIES
 Si  28.0855  Si.vbc.UPF
ATOMIC_POSITIONS
 Si 0.00 0.00 0.00 
 Si 0.25 0.25 0.25 
K_POINTS {automatic}
 4 4 4 1 1 1
