phonons of Si at the X-point
 &inputph
  tr2_ph=1.0d-12,
  prefix='si',
  trans=.true., 
  amass(1)=28.0855,
  amass(2)=28.0855,
  outdir='/home/stefano/O3/tmp//',
  fildyn='si.dyn_X',
  fildrho='si.drho_X',
 /
0.0 0.0 1.0
