 &control
    calculation='md'
    restart_mode='from_scratch',
    pseudo_dir = '/home/giannozz/O-sesame/pseudo//',
    outdir='/home/giannozz/tmp//',
    dt=20,
    nstep=100,
    disk_io='high'
  /
 &system
    ibrav= 2, celldm(1)=10.18, nat=  2, ntyp= 1,
    ecutwfc = 8.0, nosym=.true.
 /
 &electrons
    conv_thr =  1.0d-8,
    mixing_beta = 0.7
 /
 &ions
    potential_extrapolation='wfc2'
 /
ATOMIC_SPECIES
 Si  28.086  Si.vbc.UPF
ATOMIC_POSITIONS
 Si -0.123 -0.123 -0.123
 Si  0.123  0.123  0.123 
K_POINTS
 4
 0.0 0.0 0.0 1.0
 1.0 0.0 0.0 1.0
 0.0 1.0 0.0 1.0
 0.0 0.0 1.0 1.0
