 &control
    calculation='scf'
    restart_mode='from_scratch',
    prefix='Al'
    pseudo_dir = '/marconi/home/userexternal/obaseggi/q-e/pseudo/'
    outdir='/marconi/home/userexternal/obaseggi/q-e/tempdir/'
 /
 &system
    ibrav=  2,
    celldm(1) =7.60,
    nat=  1,
    ntyp= 1,
    smearing='mp'
    degauss=0.02,
    occupations='smearing'
    ecutwfc =16.0,
 /
 &electrons
    conv_thr =  1.0d-10
 /
ATOMIC_SPECIES
 Al  0.0  Al.pz-vbc.UPF
ATOMIC_POSITIONS (alat)
 Al 0.00 0.00 0.00
K_POINTS AUTOMATIC
3 3 3 1 1 1
