 &control
    calculation='nscf'
    pseudo_dir='/home/giannozz/q-e-mio/pseudo',
    outdir='/home/giannozz/q-e-mio/tempdir',
    prefix='di'
 /
 &system    
    ibrav=  2, celldm(1) =6.1, nat=  2, ntyp= 1,
    ecutwfc =40.0, nbnd = 4,
 /
 &electrons
    conv_thr =  1.0d-11
 /
ATOMIC_SPECIES
 C  12.0  C.pz-vbc.UPF
ATOMIC_POSITIONS {crystal}
C -0.25 -0.25 -0.25
C  0.0  0.0  0.0
K_POINTS {crystal}
 64 
0.0000  0.0000   0.0000   0.0156250
0.0000  0.2500   0.0000   0.0156250
0.0000  0.5000   0.0000   0.0156250
0.0000  0.7500   0.0000   0.0156250
0.2500  0.0000   0.0000   0.0156250
0.2500  0.2500   0.0000   0.0156250
0.2500  0.5000   0.0000   0.0156250
0.2500  0.7500   0.0000   0.0156250
0.5000  0.0000   0.0000   0.0156250
0.5000  0.2500   0.0000   0.0156250
0.5000  0.5000   0.0000   0.0156250
0.5000  0.7500   0.0000   0.0156250
0.7500  0.0000   0.0000   0.0156250
0.7500  0.2500   0.0000   0.0156250
0.7500  0.5000   0.0000   0.0156250
0.7500  0.7500   0.0000   0.0156250
0.0000  0.0000   0.2500   0.0156250
0.0000  0.2500   0.2500   0.0156250
0.0000  0.5000   0.2500   0.0156250
0.0000  0.7500   0.2500   0.0156250
0.2500  0.0000   0.2500   0.0156250
0.2500  0.2500   0.2500   0.0156250
0.2500  0.5000   0.2500   0.0156250
0.2500  0.7500   0.2500   0.0156250
0.5000  0.0000   0.2500   0.0156250
0.5000  0.2500   0.2500   0.0156250
0.5000  0.5000   0.2500   0.0156250
0.5000  0.7500   0.2500   0.0156250
0.7500  0.0000   0.2500   0.0156250
0.7500  0.2500   0.2500   0.0156250
0.7500  0.5000   0.2500   0.0156250
0.7500  0.7500   0.2500   0.0156250
0.0000  0.0000   0.5000   0.0156250
0.0000  0.2500   0.5000   0.0156250
0.0000  0.5000   0.5000   0.0156250
0.0000  0.7500   0.5000   0.0156250
0.2500  0.0000   0.5000   0.0156250
0.2500  0.2500   0.5000   0.0156250
0.2500  0.5000   0.5000   0.0156250
0.2500  0.7500   0.5000   0.0156250
0.5000  0.0000   0.5000   0.0156250
0.5000  0.2500   0.5000   0.0156250
0.5000  0.5000   0.5000   0.0156250
0.5000  0.7500   0.5000   0.0156250
0.7500  0.0000   0.5000   0.0156250
0.7500  0.2500   0.5000   0.0156250
0.7500  0.5000   0.5000   0.0156250
0.7500  0.7500   0.5000   0.0156250
0.0000  0.0000   0.7500   0.0156250
0.0000  0.2500   0.7500   0.0156250
0.0000  0.5000   0.7500   0.0156250
0.0000  0.7500   0.7500   0.0156250
0.2500  0.0000   0.7500   0.0156250
0.2500  0.2500   0.7500   0.0156250
0.2500  0.5000   0.7500   0.0156250
0.2500  0.7500   0.7500   0.0156250
0.5000  0.0000   0.7500   0.0156250
0.5000  0.2500   0.7500   0.0156250
0.5000  0.5000   0.7500   0.0156250
0.5000  0.7500   0.7500   0.0156250
0.7500  0.0000   0.7500   0.0156250
0.7500  0.2500   0.7500   0.0156250
0.7500  0.5000   0.7500   0.0156250
0.7500  0.7500   0.7500   0.0156250
