&inputpp 
   outdir = '/home/giannozz/q-e-mio/tempdir/'
   prefix = 'di'
   seedname = 'diamond.lib'
   spin_component = 'none'
   write_mmn = .true.
   write_amn = .true.
   write_unk = .false.
   wan_mode = 'library'
/
