Al el-phonon at X
 &inputph
  tr2_ph=1.0d-14,
  prefix='al',
  fildvscf='aldv',
  amass(1)=26.98,
  outdir='/home/giannozz/tmp//',
  fildyn='al.dyn',
  elph=.true.,
  trans=.false.,
 /
 0.0 0.0 1.0
