 &control
    calculation='phonon'
    pseudo_dir = '/home/giannozz/O-sesame/pseudo//',
    outdir='/home/giannozz/tmp//',
    prefix='al'
 /
 &system    
    ibrav=  2, celldm(1) =7.50, nat=  1, ntyp= 1,
    ecutwfc =16.0,
    occupations='smearing', smearing='methfessel-paxton', degauss=0.022
 /
 &electrons
 /
 &phonon
    xqq(1)=0.0, xqq(2)=0.0, xqq(3)=1.0
 /
ATOMIC_SPECIES
 Al  26.98 Al.vbc.UPF
ATOMIC_POSITIONS
 Al 0.00 0.00 0.00 
K_POINTS {automatic}
 16 16 16 0 0 0
