phonons of Al at X
 &inputph
  tr2_ph=1.0d-12,
  prefix='al',
  amass(1)=26.98,
  outdir='/home/giannozz/tmp//',
  fildyn='al.dyn'
  fildvscf='aldv'
 /
 0.0 0.0 1.0
