 &control
    calculation='scf'
    restart_mode='from_scratch',
    prefix='al',
    pseudo_dir = '/home/giannozz/O-sesame/pseudo//',
    outdir='/home/giannozz/tmp//'
 /
 &system    
    ibrav=  2, celldm(1) =7.50, nat=  1, ntyp= 1,
    ecutwfc =16.0,
    occupations='smearing', smearing='methfessel-paxton', degauss=0.022
 /
 &electrons
    conv_thr =  1.0d-8
    mixing_beta= 0.7
 /
ATOMIC_SPECIES
 Al  26.98 Al.vbc.UPF
ATOMIC_POSITIONS
 Al 0.00 0.00 0.00 
K_POINTS {automatic}
 8 8 8    0 0 0
