 &INPUTPP
            prefix = 'pwscf' ,
            outdir = '/scratch/tone/test/' ,
         io_choice = 'both' ,
            DeltaE = 0.01 ,
         smoothing = 0.15 ,
              Emin = -10.0 ,
              Emax = 4.0 ,
 /

