 &CONTROL
    calculation='scf',
    restart_mode='from_scratch',
    pseudo_dir='./pseudo',
    outdir='./save',
    prefix= 'b_blocco',
    tprnfor=.true.,
/
 &SYSTEM
    ibrav=1,
    celldm(1)=   18.866000000000000,
    nat=    72,
    ntyp=     2,
    ecutwfc=  70.000,
/
 &ELECTRONS
    conv_thr = 1.D-10,
    mixing_beta = 0.7,
/
 ATOMIC_SPECIES
   Si     28.08550000 Si_ONCV_PBE-1.1.upf
   O     15.99940000 O_ONCV_PBE-1.0.upf
 ATOMIC_POSITIONS {bohr}
Si   -6.42597577102823    7.68035732674268    6.32268784342997
Si    4.08212928978524   -2.60796024300401    5.36321663097792
Si   -4.50732333943846    2.58159518443032    3.44348826888231
Si    5.40792507597334   -2.90519844929958   -7.80210999272528
Si   -6.71293195205466   -2.80402887990658    3.85879392585637
Si    2.73563946556599   -8.24449687357402   -6.59177002038633
Si   -7.96083445240962   -1.14206655978931   -9.34205756805131
Si    4.34024918580286   -8.15512812826339    3.33311176675669
Si   -3.03576214518555   -4.71145318450256   -1.86612726292945
Si    0.95614209389569   -1.09723726776618    0.78394646235114
Si    9.09746737017463    4.41252042688501    9.23797406302865
Si    5.81458239818921   -1.58719733780230   -2.30586621168784
Si    4.74631025181761    5.28315106254986   -5.78850854681328
Si   -1.18519220643410    3.84573087290114   -0.99695638574746
Si   -8.67502493925009   -5.09670277773711   -0.71058102378972
Si   -2.69826176739844   -2.91363298196031   -7.32250392792687
Si   -9.41418653214978    8.64112201337497    1.19382776022115
Si   -0.33385779046596    3.53416195237987    6.91943555547831
Si    6.79939375573252    3.80294939835695   -0.45730263177445
Si    0.82139383533128    9.18627909360197    7.09268031932098
Si   -3.04824539099448   -6.27716192026245    6.40853581003747
Si    0.42346505632838   -9.04035991669733   -1.08987448896836
Si   -0.33452458132037    2.19401517501460   -6.54689846033240
Si    5.25089915130441    2.81138425601498    5.03046428243656
O   -0.33124269787345    6.80272010182795   -0.96455329945966
O   -3.61927417131404    3.65525184681795    0.75443158605855
O   -7.49849915426587   -2.42058481086471    6.78938379297345
O   -1.42115776592848    3.24241755451738   -9.15103385365106
O    7.28450109459841    4.15222012063975    6.89871293752620
O   -5.49891458328824   -1.73368882896515   -7.67439219288152
O    7.82016060715342   -3.96197877526629   -2.14182047270257
O    9.02248157600444    5.72850895948958    0.19538365175895
O   -8.29676019937358    1.77985901821460    9.11118072655667
O    2.57052454416388    3.12936156545280    6.48550718524005
O    4.03584554866105   -2.30499013836941    8.36884325996554
O    5.41823685894060    3.67825989359903    2.24088786878577
O   -6.06550046228407    0.02554167692288    3.02539376024048
O    1.66411094594491   -8.23922757889423   -3.76477586184017
O   -5.69581784081844    4.93496533369424    5.13344887329461
O   -2.01748200024600    1.95114019764974    5.02778715767690
O    0.69089275170648    1.85831651802247    0.22535757905664
O   -7.90404978153838    8.76289538927222    3.84624353451477
O   -1.29660686405542   -2.49074450475009   -0.60404218666768
O    5.93814517871730   -0.23448614229519    4.86946657359298
O   -0.59788484512873   -0.83176310394445   -6.93572995230139
O    2.27391618823123    3.59680500846198   -6.37319687064534
O    6.81239276414450   -9.15356477535463    2.06194411028949
O   -5.91866735455960   -4.13150679410958   -1.57324454369227
O   -8.51187841323462   -8.16590682721076   -0.84280800368261
O    3.61688184930168    9.08002153725700    5.93046800122253
O   -1.76992425776513    2.78218653199296   -3.79582009055294
O   -4.63970352511535   -8.82139837850549    6.98637470081310
O    5.01776174380358   -1.26177967647982   -5.32769575046011
O    1.58764665607032   -1.88126851022839    3.76172903399687
O    7.10320887585618    1.04225062276463   -1.43694452994136
O   -7.96987266185322    6.85624384485196    8.80279995687381
O    4.97897117142503    5.01744859462337   -2.69183360165839
O    0.75572816276147   -9.02857845728618   -8.89895992024030
O   -0.24781303838682   -7.23155928586318    5.62662906983910
O    4.81830710616046   -5.32567440574747    4.39035131544498
O    4.27456670151352   -5.68599217527144   -7.23218546323590
O    4.34661732442369    8.15432145329057   -6.66453963492523
O    8.39422067875270   -2.45072819278840   -8.34594238971323
O   -2.66066498095203   -4.45415053560282    8.79945080401978
O    3.51511437700445   -2.06268063799667   -0.54234637119384
O   -2.03748096241814   -7.28656389799171   -0.74804626604339
O    2.23144155576914   -8.39716596537638    1.26396420478959
O   -2.50165762542366   -4.73820786981225   -4.91489320904523
O   -4.50413952502010   -4.75626823765402    4.26563484713239
O   -8.77165051774319   -4.19122505402571    2.17725706208016
O    7.38206099430620    4.46188089721142   -7.14402584516638
O   -0.66306852354322    6.64919668238740    6.38369162475728
 K_POINTS {Gamma}
