 &control
    calculation = 'scf'
    restart_mode = 'from_scratch'
    prefix = 'si8'
    tstress = .true.
    tprnfor = .true.
    pseudo_dir = './'
    outdir = './scratch/'
 /
 &system
    ibrav = 1
    celldm(1) = 10.20
    nat = 8 
    ntyp = 1
    ecutwfc = 18.0
    !nosym = .true.
 /
 &electrons
    diagonalization = 'david'
    mixing_mode = 'plain'
    mixing_beta = 0.7
    conv_thr =  1.0d-12
 /
ATOMIC_SPECIES
Si  28.086  Si_LDA-071097.cpi.UPF

ATOMIC_POSITIONS crystal
Si 0.00 0.00 0.00
Si 0.50 0.50 0.00
Si 0.50 0.00 0.50
Si 0.00 0.50 0.50
Si 0.25 0.25 0.25
Si 0.75 0.75 0.25
Si 0.75 0.25 0.75
Si 0.25 0.75 0.75

K_POINTS automatic
2 2 2   0 0 0

