 &control
    calculation = 'scf'
    restart_mode = 'from_scratch'
    prefix = 'sic'
    tstress = .true.
    tprnfor = .true.
    pseudo_dir = './'
    outdir = './scratch/'
 /
 &system
    ibrav = 2
    celldm(1) = 10.20
    nat = 2 
    ntyp = 2
    ecutwfc = 30.0
    !nosym = .true.
 /
 &electrons
    diagonalization = 'david'
    mixing_mode = 'plain'
    mixing_beta = 0.7
    conv_thr =  1.0d-12
 /
ATOMIC_SPECIES
Si  28.086  Si_LDA-071097.cpi.UPF
C   12.000  C_LDA-140897.cpi.UPF

ATOMIC_POSITIONS
Si 0.00 0.00 0.00
C 0.25 0.25 0.25

K_POINTS automatic
4 4 4  0 0 0
