 &control
    calculation     = 'nscf'
    prefix          = 'diam'
    pseudo_dir      = '../pp/'
    outdir          = './'
 /
 &system
    ibrav           = 2
    celldm(1)       = 6.64245
    nat             = 2
    ntyp            = 1
    ecutwfc         = 60
    occupations     = 'smearing'
    smearing        = 'mp'
    degauss         = 0.02
    nbnd            = 4
 /
 &electrons
    diagonalization = 'david'
    mixing_beta     =  0.7
    conv_thr        =  1.0d-10
 /
ATOMIC_SPECIES
  C  12.01078  C_3.98148.UPF
ATOMIC_POSITIONS alat
  C   0.00  0.00  0.00
  C   0.25  0.25  0.25
K_POINTS crystal
216
  0.0000000000000  0.0000000000000  0.0000000000000  4.629630e-03 
  0.0000000000000  0.0000000000000  0.1666666666667  4.629630e-03 
  0.0000000000000  0.0000000000000  0.3333333333333  4.629630e-03 
  0.0000000000000  0.0000000000000  0.5000000000000  4.629630e-03 
  0.0000000000000  0.0000000000000  0.6666666666667  4.629630e-03 
  0.0000000000000  0.0000000000000  0.8333333333333  4.629630e-03 
  0.0000000000000  0.1666666666667  0.0000000000000  4.629630e-03 
  0.0000000000000  0.1666666666667  0.1666666666667  4.629630e-03 
  0.0000000000000  0.1666666666667  0.3333333333333  4.629630e-03 
  0.0000000000000  0.1666666666667  0.5000000000000  4.629630e-03 
  0.0000000000000  0.1666666666667  0.6666666666667  4.629630e-03 
  0.0000000000000  0.1666666666667  0.8333333333333  4.629630e-03 
  0.0000000000000  0.3333333333333  0.0000000000000  4.629630e-03 
  0.0000000000000  0.3333333333333  0.1666666666667  4.629630e-03 
  0.0000000000000  0.3333333333333  0.3333333333333  4.629630e-03 
  0.0000000000000  0.3333333333333  0.5000000000000  4.629630e-03 
  0.0000000000000  0.3333333333333  0.6666666666667  4.629630e-03 
  0.0000000000000  0.3333333333333  0.8333333333333  4.629630e-03 
  0.0000000000000  0.5000000000000  0.0000000000000  4.629630e-03 
  0.0000000000000  0.5000000000000  0.1666666666667  4.629630e-03 
  0.0000000000000  0.5000000000000  0.3333333333333  4.629630e-03 
  0.0000000000000  0.5000000000000  0.5000000000000  4.629630e-03 
  0.0000000000000  0.5000000000000  0.6666666666667  4.629630e-03 
  0.0000000000000  0.5000000000000  0.8333333333333  4.629630e-03 
  0.0000000000000  0.6666666666667  0.0000000000000  4.629630e-03 
  0.0000000000000  0.6666666666667  0.1666666666667  4.629630e-03 
  0.0000000000000  0.6666666666667  0.3333333333333  4.629630e-03 
  0.0000000000000  0.6666666666667  0.5000000000000  4.629630e-03 
  0.0000000000000  0.6666666666667  0.6666666666667  4.629630e-03 
  0.0000000000000  0.6666666666667  0.8333333333333  4.629630e-03 
  0.0000000000000  0.8333333333333  0.0000000000000  4.629630e-03 
  0.0000000000000  0.8333333333333  0.1666666666667  4.629630e-03 
  0.0000000000000  0.8333333333333  0.3333333333333  4.629630e-03 
  0.0000000000000  0.8333333333333  0.5000000000000  4.629630e-03 
  0.0000000000000  0.8333333333333  0.6666666666667  4.629630e-03 
  0.0000000000000  0.8333333333333  0.8333333333333  4.629630e-03 
  0.1666666666667  0.0000000000000  0.0000000000000  4.629630e-03 
  0.1666666666667  0.0000000000000  0.1666666666667  4.629630e-03 
  0.1666666666667  0.0000000000000  0.3333333333333  4.629630e-03 
  0.1666666666667  0.0000000000000  0.5000000000000  4.629630e-03 
  0.1666666666667  0.0000000000000  0.6666666666667  4.629630e-03 
  0.1666666666667  0.0000000000000  0.8333333333333  4.629630e-03 
  0.1666666666667  0.1666666666667  0.0000000000000  4.629630e-03 
  0.1666666666667  0.1666666666667  0.1666666666667  4.629630e-03 
  0.1666666666667  0.1666666666667  0.3333333333333  4.629630e-03 
  0.1666666666667  0.1666666666667  0.5000000000000  4.629630e-03 
  0.1666666666667  0.1666666666667  0.6666666666667  4.629630e-03 
  0.1666666666667  0.1666666666667  0.8333333333333  4.629630e-03 
  0.1666666666667  0.3333333333333  0.0000000000000  4.629630e-03 
  0.1666666666667  0.3333333333333  0.1666666666667  4.629630e-03 
  0.1666666666667  0.3333333333333  0.3333333333333  4.629630e-03 
  0.1666666666667  0.3333333333333  0.5000000000000  4.629630e-03 
  0.1666666666667  0.3333333333333  0.6666666666667  4.629630e-03 
  0.1666666666667  0.3333333333333  0.8333333333333  4.629630e-03 
  0.1666666666667  0.5000000000000  0.0000000000000  4.629630e-03 
  0.1666666666667  0.5000000000000  0.1666666666667  4.629630e-03 
  0.1666666666667  0.5000000000000  0.3333333333333  4.629630e-03 
  0.1666666666667  0.5000000000000  0.5000000000000  4.629630e-03 
  0.1666666666667  0.5000000000000  0.6666666666667  4.629630e-03 
  0.1666666666667  0.5000000000000  0.8333333333333  4.629630e-03 
  0.1666666666667  0.6666666666667  0.0000000000000  4.629630e-03 
  0.1666666666667  0.6666666666667  0.1666666666667  4.629630e-03 
  0.1666666666667  0.6666666666667  0.3333333333333  4.629630e-03 
  0.1666666666667  0.6666666666667  0.5000000000000  4.629630e-03 
  0.1666666666667  0.6666666666667  0.6666666666667  4.629630e-03 
  0.1666666666667  0.6666666666667  0.8333333333333  4.629630e-03 
  0.1666666666667  0.8333333333333  0.0000000000000  4.629630e-03 
  0.1666666666667  0.8333333333333  0.1666666666667  4.629630e-03 
  0.1666666666667  0.8333333333333  0.3333333333333  4.629630e-03 
  0.1666666666667  0.8333333333333  0.5000000000000  4.629630e-03 
  0.1666666666667  0.8333333333333  0.6666666666667  4.629630e-03 
  0.1666666666667  0.8333333333333  0.8333333333333  4.629630e-03 
  0.3333333333333  0.0000000000000  0.0000000000000  4.629630e-03 
  0.3333333333333  0.0000000000000  0.1666666666667  4.629630e-03 
  0.3333333333333  0.0000000000000  0.3333333333333  4.629630e-03 
  0.3333333333333  0.0000000000000  0.5000000000000  4.629630e-03 
  0.3333333333333  0.0000000000000  0.6666666666667  4.629630e-03 
  0.3333333333333  0.0000000000000  0.8333333333333  4.629630e-03 
  0.3333333333333  0.1666666666667  0.0000000000000  4.629630e-03 
  0.3333333333333  0.1666666666667  0.1666666666667  4.629630e-03 
  0.3333333333333  0.1666666666667  0.3333333333333  4.629630e-03 
  0.3333333333333  0.1666666666667  0.5000000000000  4.629630e-03 
  0.3333333333333  0.1666666666667  0.6666666666667  4.629630e-03 
  0.3333333333333  0.1666666666667  0.8333333333333  4.629630e-03 
  0.3333333333333  0.3333333333333  0.0000000000000  4.629630e-03 
  0.3333333333333  0.3333333333333  0.1666666666667  4.629630e-03 
  0.3333333333333  0.3333333333333  0.3333333333333  4.629630e-03 
  0.3333333333333  0.3333333333333  0.5000000000000  4.629630e-03 
  0.3333333333333  0.3333333333333  0.6666666666667  4.629630e-03 
  0.3333333333333  0.3333333333333  0.8333333333333  4.629630e-03 
  0.3333333333333  0.5000000000000  0.0000000000000  4.629630e-03 
  0.3333333333333  0.5000000000000  0.1666666666667  4.629630e-03 
  0.3333333333333  0.5000000000000  0.3333333333333  4.629630e-03 
  0.3333333333333  0.5000000000000  0.5000000000000  4.629630e-03 
  0.3333333333333  0.5000000000000  0.6666666666667  4.629630e-03 
  0.3333333333333  0.5000000000000  0.8333333333333  4.629630e-03 
  0.3333333333333  0.6666666666667  0.0000000000000  4.629630e-03 
  0.3333333333333  0.6666666666667  0.1666666666667  4.629630e-03 
  0.3333333333333  0.6666666666667  0.3333333333333  4.629630e-03 
  0.3333333333333  0.6666666666667  0.5000000000000  4.629630e-03 
  0.3333333333333  0.6666666666667  0.6666666666667  4.629630e-03 
  0.3333333333333  0.6666666666667  0.8333333333333  4.629630e-03 
  0.3333333333333  0.8333333333333  0.0000000000000  4.629630e-03 
  0.3333333333333  0.8333333333333  0.1666666666667  4.629630e-03 
  0.3333333333333  0.8333333333333  0.3333333333333  4.629630e-03 
  0.3333333333333  0.8333333333333  0.5000000000000  4.629630e-03 
  0.3333333333333  0.8333333333333  0.6666666666667  4.629630e-03 
  0.3333333333333  0.8333333333333  0.8333333333333  4.629630e-03 
  0.5000000000000  0.0000000000000  0.0000000000000  4.629630e-03 
  0.5000000000000  0.0000000000000  0.1666666666667  4.629630e-03 
  0.5000000000000  0.0000000000000  0.3333333333333  4.629630e-03 
  0.5000000000000  0.0000000000000  0.5000000000000  4.629630e-03 
  0.5000000000000  0.0000000000000  0.6666666666667  4.629630e-03 
  0.5000000000000  0.0000000000000  0.8333333333333  4.629630e-03 
  0.5000000000000  0.1666666666667  0.0000000000000  4.629630e-03 
  0.5000000000000  0.1666666666667  0.1666666666667  4.629630e-03 
  0.5000000000000  0.1666666666667  0.3333333333333  4.629630e-03 
  0.5000000000000  0.1666666666667  0.5000000000000  4.629630e-03 
  0.5000000000000  0.1666666666667  0.6666666666667  4.629630e-03 
  0.5000000000000  0.1666666666667  0.8333333333333  4.629630e-03 
  0.5000000000000  0.3333333333333  0.0000000000000  4.629630e-03 
  0.5000000000000  0.3333333333333  0.1666666666667  4.629630e-03 
  0.5000000000000  0.3333333333333  0.3333333333333  4.629630e-03 
  0.5000000000000  0.3333333333333  0.5000000000000  4.629630e-03 
  0.5000000000000  0.3333333333333  0.6666666666667  4.629630e-03 
  0.5000000000000  0.3333333333333  0.8333333333333  4.629630e-03 
  0.5000000000000  0.5000000000000  0.0000000000000  4.629630e-03 
  0.5000000000000  0.5000000000000  0.1666666666667  4.629630e-03 
  0.5000000000000  0.5000000000000  0.3333333333333  4.629630e-03 
  0.5000000000000  0.5000000000000  0.5000000000000  4.629630e-03 
  0.5000000000000  0.5000000000000  0.6666666666667  4.629630e-03 
  0.5000000000000  0.5000000000000  0.8333333333333  4.629630e-03 
  0.5000000000000  0.6666666666667  0.0000000000000  4.629630e-03 
  0.5000000000000  0.6666666666667  0.1666666666667  4.629630e-03 
  0.5000000000000  0.6666666666667  0.3333333333333  4.629630e-03 
  0.5000000000000  0.6666666666667  0.5000000000000  4.629630e-03 
  0.5000000000000  0.6666666666667  0.6666666666667  4.629630e-03 
  0.5000000000000  0.6666666666667  0.8333333333333  4.629630e-03 
  0.5000000000000  0.8333333333333  0.0000000000000  4.629630e-03 
  0.5000000000000  0.8333333333333  0.1666666666667  4.629630e-03 
  0.5000000000000  0.8333333333333  0.3333333333333  4.629630e-03 
  0.5000000000000  0.8333333333333  0.5000000000000  4.629630e-03 
  0.5000000000000  0.8333333333333  0.6666666666667  4.629630e-03 
  0.5000000000000  0.8333333333333  0.8333333333333  4.629630e-03 
  0.6666666666667  0.0000000000000  0.0000000000000  4.629630e-03 
  0.6666666666667  0.0000000000000  0.1666666666667  4.629630e-03 
  0.6666666666667  0.0000000000000  0.3333333333333  4.629630e-03 
  0.6666666666667  0.0000000000000  0.5000000000000  4.629630e-03 
  0.6666666666667  0.0000000000000  0.6666666666667  4.629630e-03 
  0.6666666666667  0.0000000000000  0.8333333333333  4.629630e-03 
  0.6666666666667  0.1666666666667  0.0000000000000  4.629630e-03 
  0.6666666666667  0.1666666666667  0.1666666666667  4.629630e-03 
  0.6666666666667  0.1666666666667  0.3333333333333  4.629630e-03 
  0.6666666666667  0.1666666666667  0.5000000000000  4.629630e-03 
  0.6666666666667  0.1666666666667  0.6666666666667  4.629630e-03 
  0.6666666666667  0.1666666666667  0.8333333333333  4.629630e-03 
  0.6666666666667  0.3333333333333  0.0000000000000  4.629630e-03 
  0.6666666666667  0.3333333333333  0.1666666666667  4.629630e-03 
  0.6666666666667  0.3333333333333  0.3333333333333  4.629630e-03 
  0.6666666666667  0.3333333333333  0.5000000000000  4.629630e-03 
  0.6666666666667  0.3333333333333  0.6666666666667  4.629630e-03 
  0.6666666666667  0.3333333333333  0.8333333333333  4.629630e-03 
  0.6666666666667  0.5000000000000  0.0000000000000  4.629630e-03 
  0.6666666666667  0.5000000000000  0.1666666666667  4.629630e-03 
  0.6666666666667  0.5000000000000  0.3333333333333  4.629630e-03 
  0.6666666666667  0.5000000000000  0.5000000000000  4.629630e-03 
  0.6666666666667  0.5000000000000  0.6666666666667  4.629630e-03 
  0.6666666666667  0.5000000000000  0.8333333333333  4.629630e-03 
  0.6666666666667  0.6666666666667  0.0000000000000  4.629630e-03 
  0.6666666666667  0.6666666666667  0.1666666666667  4.629630e-03 
  0.6666666666667  0.6666666666667  0.3333333333333  4.629630e-03 
  0.6666666666667  0.6666666666667  0.5000000000000  4.629630e-03 
  0.6666666666667  0.6666666666667  0.6666666666667  4.629630e-03 
  0.6666666666667  0.6666666666667  0.8333333333333  4.629630e-03 
  0.6666666666667  0.8333333333333  0.0000000000000  4.629630e-03 
  0.6666666666667  0.8333333333333  0.1666666666667  4.629630e-03 
  0.6666666666667  0.8333333333333  0.3333333333333  4.629630e-03 
  0.6666666666667  0.8333333333333  0.5000000000000  4.629630e-03 
  0.6666666666667  0.8333333333333  0.6666666666667  4.629630e-03 
  0.6666666666667  0.8333333333333  0.8333333333333  4.629630e-03 
  0.8333333333333  0.0000000000000  0.0000000000000  4.629630e-03 
  0.8333333333333  0.0000000000000  0.1666666666667  4.629630e-03 
  0.8333333333333  0.0000000000000  0.3333333333333  4.629630e-03 
  0.8333333333333  0.0000000000000  0.5000000000000  4.629630e-03 
  0.8333333333333  0.0000000000000  0.6666666666667  4.629630e-03 
  0.8333333333333  0.0000000000000  0.8333333333333  4.629630e-03 
  0.8333333333333  0.1666666666667  0.0000000000000  4.629630e-03 
  0.8333333333333  0.1666666666667  0.1666666666667  4.629630e-03 
  0.8333333333333  0.1666666666667  0.3333333333333  4.629630e-03 
  0.8333333333333  0.1666666666667  0.5000000000000  4.629630e-03 
  0.8333333333333  0.1666666666667  0.6666666666667  4.629630e-03 
  0.8333333333333  0.1666666666667  0.8333333333333  4.629630e-03 
  0.8333333333333  0.3333333333333  0.0000000000000  4.629630e-03 
  0.8333333333333  0.3333333333333  0.1666666666667  4.629630e-03 
  0.8333333333333  0.3333333333333  0.3333333333333  4.629630e-03 
  0.8333333333333  0.3333333333333  0.5000000000000  4.629630e-03 
  0.8333333333333  0.3333333333333  0.6666666666667  4.629630e-03 
  0.8333333333333  0.3333333333333  0.8333333333333  4.629630e-03 
  0.8333333333333  0.5000000000000  0.0000000000000  4.629630e-03 
  0.8333333333333  0.5000000000000  0.1666666666667  4.629630e-03 
  0.8333333333333  0.5000000000000  0.3333333333333  4.629630e-03 
  0.8333333333333  0.5000000000000  0.5000000000000  4.629630e-03 
  0.8333333333333  0.5000000000000  0.6666666666667  4.629630e-03 
  0.8333333333333  0.5000000000000  0.8333333333333  4.629630e-03 
  0.8333333333333  0.6666666666667  0.0000000000000  4.629630e-03 
  0.8333333333333  0.6666666666667  0.1666666666667  4.629630e-03 
  0.8333333333333  0.6666666666667  0.3333333333333  4.629630e-03 
  0.8333333333333  0.6666666666667  0.5000000000000  4.629630e-03 
  0.8333333333333  0.6666666666667  0.6666666666667  4.629630e-03 
  0.8333333333333  0.6666666666667  0.8333333333333  4.629630e-03 
  0.8333333333333  0.8333333333333  0.0000000000000  4.629630e-03 
  0.8333333333333  0.8333333333333  0.1666666666667  4.629630e-03 
  0.8333333333333  0.8333333333333  0.3333333333333  4.629630e-03 
  0.8333333333333  0.8333333333333  0.5000000000000  4.629630e-03 
  0.8333333333333  0.8333333333333  0.6666666666667  4.629630e-03 
  0.8333333333333  0.8333333333333  0.8333333333333  4.629630e-03 

