 &control
    calculation = 'scf'
 /
 &system    
    ibrav=2, a=3.35, nat=2, ntyp=1,
    ecutwfc=18.0, ecutrho=100.0  nbnd = 8,
    input_dft='pbe0', nqx1=2, nqx2=2, nqx3=2, 
    exxdiv_treatment='gygi-baldereschi'
    x_gamma_extrapolation = .true.
 /
 &electrons
 /
ATOMIC_SPECIES
 C   28.086  C.pbe-rrkjus.UPF
ATOMIC_POSITIONS (alat)
 C 0.00 0.00 0.00 
 C 0.25 0.25 0.25 
K_POINTS
  10
   0.1250000  0.1250000  0.1250000   1.00
   0.1250000  0.1250000  0.3750000   3.00
   0.1250000  0.1250000  0.6250000   3.00
   0.1250000  0.1250000  0.8750000   3.00
   0.1250000  0.3750000  0.3750000   3.00
   0.1250000  0.3750000  0.6250000   6.00
   0.1250000  0.3750000  0.8750000   6.00
   0.1250000  0.6250000  0.6250000   3.00
   0.3750000  0.3750000  0.3750000   1.00
   0.3750000  0.3750000  0.6250000   3.00
