 &control
    calculation='scf'
    tstress=.true.
 /
 &system
    ibrav=2, celldm(1) =6.48, nat=1, ntyp=1,
    ecutwfc = 24.0, ecutrho = 288.0,
    occupations='smearing', smearing='marzari-vanderbilt', degauss=0.02
 /
 &electrons
    conv_thr=1.0e-8
 /
ATOMIC_SPECIES
 Ni 58.69 Ni.pz-nd-rrkjus.UPF
ATOMIC_POSITIONS {alat}
 Ni 0.0 0.0 0.0
K_POINTS {automatic}
 4 4 4 1 1 1
