 &inputhp
   prefix = 'NiO',
   outdir = '/scratch/timrov/WORK_Hubbard/Z_git/work2_QE_fork/q-e/HP/examples/tmp/',
   nq1 = 2, nq2 = 2, nq3 = 2,
   conv_thr_chi = 1.0d-8,
   iverbosity = 2
 /
