--
&inputph
  prefix   = 'si',
  outdir   = './'
  epsil    = .false.,
  fildyn   = 'si.dyn',
  ldisp    = .true.
  fildvscf = 'dvscf'
  nq1=3,
  nq2=3,
  nq3=3,
  tr2_ph   =  1.0d-13,
 /
