&control
    calculation     = 'bands'
    prefix          = 'lif'
    pseudo_dir      = '../../pseudos/'
    outdir          = './'
    tprnfor         = .true.
    tstress         = .true.
/
&system
    ibrav           = 2
    celldm(1)       = 7.67034
    nat             = 2
    ntyp            = 2
    ecutwfc         = 150.0
!    nbnd            = 200 
/
&electrons
    conv_thr        = 1.0d-12
    diago_full_acc  = .true.
/
ATOMIC_SPECIES
 Li 6.941  Li.upf
 F 18.9984 F.upf
ATOMIC_POSITIONS crystal
 Li 0.0000 0.0000 0.0000
 F  0.5000 0.5000 0.5000

K_POINTS crystal
   60
  0.001000000  0.500000000  0.375000000   6.0
  0.001000000  0.750000000  0.625000000   6.0
  0.126000000  0.000000000  0.000000000   1.0
  0.126000000  0.000000000  0.250000000   3.0
  0.126000000  0.000000000  0.500000000   3.0
  0.126000000  0.000000000  0.750000000   3.0
  0.126000000  0.125000000  0.125000000   3.0
  0.126000000  0.125000000  0.375000000   6.0
  0.126000000  0.125000000  0.625000000   6.0
  0.126000000  0.125000000  0.875000000   6.0
  0.126000000  0.375000000  0.375000000   3.0
  0.126000000  0.375000000  0.625000000   6.0
  0.126000000  0.375000000  0.875000000   6.0
  0.126000000  0.500000000  0.500000000   3.0
  0.126000000  0.625000000  0.625000000   3.0
  0.126000000  0.750000000  0.250000000   6.0
  0.126000000  0.750000000  0.500000000   6.0
  0.126000000  0.750000000  0.750000000   3.0
  0.251000000  0.000000000  0.125000000   3.0
  0.251000000  0.000000000  0.625000000   3.0
  0.251000000  0.000000000  0.875000000   3.0
  0.251000000  0.750000000  0.125000000   6.0
  0.251000000  0.750000000  0.625000000   6.0
  0.376000000  0.000000000  0.000000000   1.0
  0.376000000  0.000000000  0.750000000   3.0
  0.376000000  0.125000000  0.625000000   6.0
  0.376000000  0.125000000  0.875000000   6.0
  0.376000000  0.375000000  0.375000000   3.0
  0.376000000  0.375000000  0.625000000   6.0
  0.376000000  0.500000000  0.000000000   3.0
  0.376000000  0.875000000  0.375000000   6.0
  0.501000000  0.000000000  0.125000000   3.0
  0.501000000  0.000000000  0.875000000   3.0
  0.501000000  0.750000000  0.125000000   6.0
  0.501000000  0.750000000  0.625000000   6.0
  0.626000000  0.000000000  0.000000000   1.0
  0.626000000  0.000000000  0.250000000   3.0
  0.626000000  0.625000000  0.375000000   6.0
  0.626000000  0.625000000  0.625000000   3.0
  0.626000000  0.750000000  0.000000000   3.0
  0.626000000  0.750000000  0.250000000   6.0
  0.626000000  0.750000000  0.500000000   6.0
  0.626000000  0.875000000  0.125000000   6.0
  0.626000000  0.875000000  0.375000000   6.0
  0.626000000  0.875000000  0.625000000   6.0
  0.751000000  0.000000000  0.125000000   3.0
  0.751000000  0.000000000  0.375000000   3.0
  0.751000000  0.000000000  0.875000000   3.0
  0.876000000  0.000000000  0.000000000   1.0
  0.876000000  0.000000000  0.250000000   3.0
  0.876000000  0.000000000  0.500000000   3.0
  0.876000000  0.000000000  0.750000000   3.0
  0.876000000  0.375000000  0.375000000   3.0
  0.876000000  0.625000000  0.125000000   6.0
  0.876000000  0.625000000  0.375000000   6.0
  0.876000000  0.625000000  0.625000000   3.0
  0.876000000  0.875000000  0.125000000   6.0
  0.876000000  0.875000000  0.375000000   6.0
  0.876000000  0.875000000  0.625000000   6.0
  0.876000000  0.875000000  0.875000000   3.0

