&CONTROL
  prefix         = "diamond"
  outdir         = "/home/aadhityan/Documents/gitlab/pioud_aadhityan/tempdir",
  pseudo_dir     = "/home/aadhityan/Documents/gitlab/pioud_aadhityan/pseudo",
  tstress = .true.
/
&SYSTEM
    ibrav = 2 ,
    nosym_evc= .true.
    a=3.56,
    nat = 2,
    ntyp = 1,
    nspin=1,
    ecutwfc = 25.0,
    ecutrho = 120.0,
    nbnd = 15,
    occupations='smearing',
    smearing='fd'
    degauss=0.001,
/
&ELECTRONS
  conv_thr    = 1.D-8,
  mixing_beta = 0.3D0,
/
&IONS
/
ATOMIC_SPECIES
C    12.0107  C.pbe-van_bm.UPF
ATOMIC_POSITIONS crystal
C        0.0   0.0  0.000000000
C        0.25  0.25  0.25
K_POINTS automatic
4 4 4 0 0 0
