 &control
    calculation='scf'
    restart_mode='from_scratch',
    pseudo_dir = '/home/dalcorso/O-sesame/pseudo//',
    outdir='/home/dalcorso/tmp//'
    prefix='al'
 /
 &system
    ibrav = 6, 
    celldm(1) =5.3, 
    celldm(3) =1.414, 
    nat= 2, 
    ntyp= 1,
    ecutwfc = 15.0, 
    occupations='smearing', 
    smearing='methfessel-paxton', 
    degauss=0.01
 /
 &electrons
    conv_thr = 1.0e-8
    mixing_beta = 0.7
 /
ATOMIC_SPECIES
 Al 26.98 Al.vbc.UPF 
ATOMIC_POSITIONS
 Al 0. 0. 0.0
 Al 0.5 0.5 0.707
K_POINTS (automatic)
 4 4 4 1 1 1                
