 &control
    calculation='scf',
    restart_mode='from_scratch',
    pseudo_dir = '/home/dalcorso/O-sesame/pseudo//',
    outdir='/home/dalcorso/tmp//',
    prefix='alh'
 /
 &system
    ibrav = 6,
    celldm(1) =12.0,
    celldm(3) =2.25,
    nat= 7,
    ntyp= 2,
    ecutwfc = 25.0,
    ecutrho = 150.0
    occupations='smearing',
    smearing='methfessel-paxton',
    degauss=0.01
 /
 &electrons
    conv_thr = 1.0e-8
    mixing_beta = 0.7
 /
ATOMIC_SPECIES
 Al 26.98 Al.vbc.UPF
 H  1.0   H.vbc.UPF
ATOMIC_POSITIONS
Al     0.00000000     0.00000000     0.00000000
Al     0.00000000     0.00000000     0.37500000
Al     0.00000000     0.00000000     0.75000000
Al    -0.02779870     0.00000000     1.13037515
H      0.19269012     0.00000000     1.31250000
Al    -0.02779870     0.00000000     1.49462485
Al     0.00000000     0.00000000     1.87500000
K_POINTS (automatic)
 1 1 3 0 0 0
