    14
 Wannier centres, written by Wannier90 on16Sep2025 at 20:53:18 
X         -1.23468625       5.80442386       5.10908589
X          2.21062166       4.11405418       5.10908587
X         -0.97593539       1.97551485       5.10908587
X          1.23468640       2.12490466       1.49324744
X          4.65637821       3.81527432       1.49324746
X          4.40943540       0.00681747       1.49324746
Cr         0.00000000       3.96466430       0.00680040
Cr         0.00000000       3.96466430       6.59553293
I         -1.20958771       5.84849436       5.03824057
I          2.23623855       4.07028296       5.03824057
I         -1.02665084       1.97521558       5.03824057
I          1.20958771       2.08083423       1.56409277
I          4.63076145       3.85904564       1.56409277
I          4.46015084       0.00711657       1.56409277
