&KC_PP
  outdir              = './out'
  prefix              = 'Si'
  seedname            = 'Si'
  num_wann_occ        = 4
  num_wann_emp        = 4 
  num_wann            = 8 
  mp1                 = 2
  mp2                 = 2
  mp3                 = 2
  use_ws_distance     = .true.
/
K_POINTS crystal_b
 3
 0.00 0.00 0.00 10
 0.50 0.00 0.00 10
 0.00 0.00 0.00 1

!K_POINTS crystal_b
!8
!0.0000000000     0.0000000000     0.0000000000 10 ! GAMMA
!0.5000000000     0.0000000000     0.5000000000 10 ! X
!0.6250000000     0.2500000000     0.6250000000 0 ! U
!0.3750000000     0.3750000000     0.7500000000 10 ! K
!0.0000000000     0.0000000000     0.0000000000 10 ! GAMMA
!0.5000000000     0.5000000000     0.5000000000 10 ! L
!0.5000000000     0.2500000000     0.7500000000 10 ! W
!0.5000000000     0.0000000000     0.5000000000 1 ! W
