 &control
    calculation = 'scf'
    restart_mode = 'from_scratch'
    prefix = 'cn'
    tstress = .true.
    tprnfor = .true.
    pseudo_dir = './'
    outdir = './scratch/'
 /
 &system
    ibrav = 2
    celldm(1) = 20.00
    nat = 2 
    ntyp = 2
    ecutwfc = 40.0
    starting_magnetization = 1
    multiplicity = 2
    nspin = 2
 /
 &electrons
    diagonalization = 'david'
    mixing_mode = 'plain'
    mixing_beta = 0.7
    conv_thr =  1.0d-8
 /
ATOMIC_SPECIES
C    1.000  C_pbe-140897.cpi.UPF
N    1.000  N_pbe-010200.cpi.UPF

ATOMIC_POSITIONS bohr
C  -0.64103200388124148633 -0.64103200388124148633 -0.64103200388124148633
N   0.64103200388124148633  0.64103200388124148633  0.64103200388124148633

K_POINTS automatic
1 1 1 0 0 0
