&inputpp
   outdir           = '../../out'
   prefix           = 'si'
   seedname         = 'wann'
   wan_mode         = 'standalone'
   write_unk        = .true.
   spin_component   = 'up'
/
