 &CONTROL
 calculation="scf"
 tprnfor    = .true.
 prefix="silicon",pseudo_dir="./",outdir="./"
 /
 &SYSTEM
 ibrav  = 0
 nat    =           16
 ntyp   =            1
 ecutwfc=    18.000000000000000     
 
 /
 &ELECTRONS
 conv_thr=1.0d-16,mixing_beta=0.7
 /
 ATOMIC_SPECIES
   Si        28.086      Si.vbc.UPF
 ATOMIC_POSITIONS {angstrom}
Si      0.000000000     0.000000000    -0.010000000
Si      1.349401882     1.349401882     1.349401882
Si     -2.698803764     2.698803764     0.000000000
Si     -1.349401882     4.048205646     1.349401882
Si      0.000000000     2.698803764     2.698803764
Si      1.349401882     4.048205646     4.048205646
Si     -2.698803764     5.397607528     2.698803764
Si     -1.349401882     6.747009410     4.048205646
Si     -2.698803764     0.000000000     2.698803764
Si     -1.349401882     1.349401882     4.048205646
Si     -5.397607528     2.698803764     2.698803764
Si     -4.048205646     4.048205646     4.048205646
Si     -2.698803764     2.698803764     5.397607528
Si     -1.349401882     4.048205646     6.747009410
Si     -5.397607528     5.397607528     5.397607528
Si     -4.048205646     6.747009410     6.747009410
 K_POINTS {automatic} 
1 1 1 1 1 1
 CELL_PARAMETERS {angstrom}
  -5.3976075276179989        0.0000000000000000        5.3976075276179989     
   0.0000000000000000        5.3976075276179989        5.3976075276179989     
  -5.3976075276179989        5.3976075276179989        0.0000000000000000     
