&control
    calculation     = 'bands'
    prefix          = 'lif'
    pseudo_dir      = '../../pseudos/'
    outdir          = './'
    tprnfor         = .true.
    tstress         = .true.
/
&system
    ibrav           = 2
    celldm(1)       = 7.67034
    nat             = 2
    ntyp            = 2
    ecutwfc         = 150.0
    nbnd            = 20 
/
&electrons
    conv_thr        = 1.0d-12
    diago_full_acc  = .true.
/
ATOMIC_SPECIES
 Li 6.941  Li.upf
 F 18.9984 F.upf
ATOMIC_POSITIONS crystal
 Li 0.0000 0.0000 0.0000
 F  0.5000 0.5000 0.5000

K_POINTS crystal 
   64
  0.000000000  0.000000000  0.000000000   1.0
  0.000000000  0.000000000  0.250000000   1.0
  0.000000000  0.000000000  0.500000000   1.0
  0.000000000  0.000000000  0.750000000   1.0
  0.000000000  0.250000000  0.000000000   1.0
  0.000000000  0.250000000  0.250000000   1.0
  0.000000000  0.250000000  0.500000000   1.0
  0.000000000  0.250000000  0.750000000   1.0
  0.000000000  0.500000000  0.000000000   1.0
  0.000000000  0.500000000  0.250000000   1.0
  0.000000000  0.500000000  0.500000000   1.0
  0.000000000  0.500000000  0.750000000   1.0
  0.000000000  0.750000000  0.000000000   1.0
  0.000000000  0.750000000  0.250000000   1.0
  0.000000000  0.750000000  0.500000000   1.0
  0.000000000  0.750000000  0.750000000   1.0
  0.250000000  0.000000000  0.000000000   1.0
  0.250000000  0.000000000  0.250000000   1.0
  0.250000000  0.000000000  0.500000000   1.0
  0.250000000  0.000000000  0.750000000   1.0
  0.250000000  0.250000000  0.000000000   1.0
  0.250000000  0.250000000  0.250000000   1.0
  0.250000000  0.250000000  0.500000000   1.0
  0.250000000  0.250000000  0.750000000   1.0
  0.250000000  0.500000000  0.000000000   1.0
  0.250000000  0.500000000  0.250000000   1.0
  0.250000000  0.500000000  0.500000000   1.0
  0.250000000  0.500000000  0.750000000   1.0
  0.250000000  0.750000000  0.000000000   1.0
  0.250000000  0.750000000  0.250000000   1.0
  0.250000000  0.750000000  0.500000000   1.0
  0.250000000  0.750000000  0.750000000   1.0
  0.500000000  0.000000000  0.000000000   1.0
  0.500000000  0.000000000  0.250000000   1.0
  0.500000000  0.000000000  0.500000000   1.0
  0.500000000  0.000000000  0.750000000   1.0
  0.500000000  0.250000000  0.000000000   1.0
  0.500000000  0.250000000  0.250000000   1.0
  0.500000000  0.250000000  0.500000000   1.0
  0.500000000  0.250000000  0.750000000   1.0
  0.500000000  0.500000000  0.000000000   1.0
  0.500000000  0.500000000  0.250000000   1.0
  0.500000000  0.500000000  0.500000000   1.0
  0.500000000  0.500000000  0.750000000   1.0
  0.500000000  0.750000000  0.000000000   1.0
  0.500000000  0.750000000  0.250000000   1.0
  0.500000000  0.750000000  0.500000000   1.0
  0.500000000  0.750000000  0.750000000   1.0
  0.750000000  0.000000000  0.000000000   1.0
  0.750000000  0.000000000  0.250000000   1.0
  0.750000000  0.000000000  0.500000000   1.0
  0.750000000  0.000000000  0.750000000   1.0
  0.750000000  0.250000000  0.000000000   1.0
  0.750000000  0.250000000  0.250000000   1.0
  0.750000000  0.250000000  0.500000000   1.0
  0.750000000  0.250000000  0.750000000   1.0
  0.750000000  0.500000000  0.000000000   1.0
  0.750000000  0.500000000  0.250000000   1.0
  0.750000000  0.500000000  0.500000000   1.0
  0.750000000  0.500000000  0.750000000   1.0
  0.750000000  0.750000000  0.000000000   1.0
  0.750000000  0.750000000  0.250000000   1.0
  0.750000000  0.750000000  0.500000000   1.0
  0.750000000  0.750000000  0.750000000   1.0
