 &control
    title = ' Water 256 molecules ',
    calculation = 'cp',
    restart_mode = 'from_scratch', ! 'restart',
    ndr = 50,
    ndw = -1,
    nstep  = 10,
    iprint = 10, 
    isave  = 100,
    tstress = .TRUE.,
    tprnfor = .TRUE.,
    dt    = 5.0d0,
    etot_conv_thr = 1.d-8,
    prefix = 'h2o',
    pseudo_dir='/home/ballabio/O-sesame/pseudo/',
    outdir='/home/ballabio/tmp/intel/',
 /
 &system
    ibrav = 14, 
    celldm(1) = 37.3, 
    celldm(2) = 1.0, 
    celldm(3) = 1.0, 
    celldm(4) = 0.0, 
    celldm(5) = 0.0, 
    celldm(6) = 0.0, 
    nat = 768,
    ntyp = 2,
    nbnd = 1024,
    nelec = 2048,
    ecutwfc = 70.0,
    ecfixed = 68.0,
    qcutz = 68.0,
    q2sigma = 8.0,
    xc_type = 'BLYP',
 /
 &electrons
    emass = 400.d0,
    emass_cutoff = 2.5d0,
    orthogonalization = 'ortho',
    ortho_eps = 5.d-8,
    ortho_max = 15,
    electron_dynamics = 'sd',
    electron_velocities = 'zero',
    electron_temperature = 'not_controlled',
 /
 &ions
    ion_dynamics = 'none',
    ion_radius(1) = 0.8d0,
    ion_radius(2) = 0.5d0,
!    ion_velocities = 'zero',
    ion_temperature = 'not_controlled'
 /
 &cell
    cell_dynamics = 'none',
    cell_velocities = 'zero',
    press = 0.0d0,
    wmass = 70000.0d0
 /
ATOMIC_SPECIES
 O  16.0d0   O.BLYP.UPF 4
 H  1.0079d0 H.fpmd.UPF 4
ATOMIC_POSITIONS (crystal)
O   .167100  .192900  .085100
O   .667100  .192900  .085100
O   .167100  .692900  .085100
O   .167100  .192900  .585100
O   .667100  .692900  .085100
O   .667100  .692900  .585100
O   .167100  .692900  .585100
O   .667100  .192900  .585100
O   .531700  .209850  .133250
O  1.031700  .209850  .133250
O   .531700  .709850  .133250
O   .531700  .209850  .633250
O  1.031700  .709850  .133250
O  1.031700  .709850  .633250
O   .531700  .709850  .633250
O  1.031700  .209850  .633250
O   .504400  .070450  .253650
O  1.004400  .070450  .253650
O   .504400  .570450  .253650
O   .504400  .070450  .753650
O  1.004400  .570450  .253650
O  1.004400  .570450  .753650
O   .504400  .570450  .753650
O  1.004400  .070450  .753650
O   .314850 -.163050 -.265150
O   .814850 -.163050 -.265150
O   .314850  .336950 -.265150
O   .314850 -.163050  .234850
O   .814850  .336950 -.265150
O   .814850  .336950  .234850
O   .314850  .336950  .234850
O   .814850 -.163050  .234850
O   .723250 -.080550  .108050
O  1.223250 -.080550  .108050
O   .723250  .419450  .108050
O   .723250 -.080550  .608050
O  1.223250  .419450  .108050
O  1.223250  .419450  .608050
O   .723250  .419450  .608050
O  1.223250 -.080550  .608050
O   .631850 -.126200 -.106050
O  1.131850 -.126200 -.106050
O   .631850  .373800 -.106050
O   .631850 -.126200  .393950
O  1.131850  .373800 -.106050
O  1.131850  .373800  .393950
O   .631850  .373800  .393950
O  1.131850 -.126200  .393950
O   .344450 -.278600 -.095000
O   .844450 -.278600 -.095000
O   .344450  .221400 -.095000
O   .344450 -.278600  .405000
O   .844450  .221400 -.095000
O   .844450  .221400  .405000
O   .344450  .221400  .405000
O   .844450 -.278600  .405000
O   .244700  .137600 -.016800
O   .744700  .137600 -.016800
O   .244700  .637600 -.016800
O   .244700  .137600  .483200
O   .744700  .637600 -.016800
O   .744700  .637600  .483200
O   .244700  .637600  .483200
O   .744700  .137600  .483200
O   .902100  .218750  .247100
O  1.402100  .218750  .247100
O   .902100  .718750  .247100
O   .902100  .218750  .747100
O  1.402100  .718750  .247100
O  1.402100  .718750  .747100
O   .902100  .718750  .747100
O  1.402100  .218750  .747100
O   .849050  .094650  .291650
O  1.349050  .094650  .291650
O   .849050  .594650  .291650
O   .849050  .094650  .791650
O  1.349050  .594650  .291650
O  1.349050  .594650  .791650
O   .849050  .594650  .791650
O  1.349050  .094650  .791650
O   .463650 -.057050 -.362600
O   .963650 -.057050 -.362600
O   .463650  .442950 -.362600
O   .463650 -.057050  .137400
O   .963650  .442950 -.362600
O   .963650  .442950  .137400
O   .463650  .442950  .137400
O   .963650 -.057050  .137400
O   .334050  .038600  .049800
O   .834050  .038600  .049800
O   .334050  .538600  .049800
O   .334050  .038600  .549800
O   .834050  .538600  .049800
O   .834050  .538600  .549800
O   .334050  .538600  .549800
O   .834050  .038600  .549800
O   .418700  .008250 -.055750
O   .918700  .008250 -.055750
O   .418700  .508250 -.055750
O   .418700  .008250  .444250
O   .918700  .508250 -.055750
O   .918700  .508250  .444250
O   .418700  .508250  .444250
O   .918700  .008250  .444250
O   .208200  .070300 -.231300
O   .708200  .070300 -.231300
O   .208200  .570300 -.231300
O   .208200  .070300  .268700
O   .708200  .570300 -.231300
O   .708200  .570300  .268700
O   .208200  .570300  .268700
O   .708200  .070300  .268700
O   .464900 -.162050  .027300
O   .964900 -.162050  .027300
O   .464900  .337950  .027300
O   .464900 -.162050  .527300
O   .964900  .337950  .027300
O   .964900  .337950  .527300
O   .464900  .337950  .527300
O   .964900 -.162050  .527300
O   .591750  .198550 -.109600
O  1.091750  .198550 -.109600
O   .591750  .698550 -.109600
O   .591750  .198550  .390400
O  1.091750  .698550 -.109600
O  1.091750  .698550  .390400
O   .591750  .698550  .390400
O  1.091750  .198550  .390400
O   .760150 -.183550 -.139300
O  1.260150 -.183550 -.139300
O   .760150  .316450 -.139300
O   .760150 -.183550  .360700
O  1.260150  .316450 -.139300
O  1.260150  .316450  .360700
O   .760150  .316450  .360700
O  1.260150 -.183550  .360700
O   .363000 -.021400 -.274300
O   .863000 -.021400 -.274300
O   .363000  .478600 -.274300
O   .363000 -.021400  .225700
O   .863000  .478600 -.274300
O   .863000  .478600  .225700
O   .363000  .478600  .225700
O   .863000 -.021400  .225700
O   .460000  .137300 -.126050
O   .960000  .137300 -.126050
O   .460000  .637300 -.126050
O   .460000  .137300  .373950
O   .960000  .637300 -.126050
O   .960000  .637300  .373950
O   .460000  .637300  .373950
O   .960000  .137300  .373950
O   .622500  .101200 -.326300
O  1.122500  .101200 -.326300
O   .622500  .601200 -.326300
O   .622500  .101200  .173700
O  1.122500  .601200 -.326300
O  1.122500  .601200  .173700
O   .622500  .601200  .173700
O  1.122500  .101200  .173700
O   .596550 -.213100  .002450
O  1.096550 -.213100  .002450
O   .596550  .286900  .002450
O   .596550 -.213100  .502450
O  1.096550  .286900  .002450
O  1.096550  .286900  .502450
O   .596550  .286900  .502450
O  1.096550 -.213100  .502450
O   .593950 -.016750  .094950
O  1.093950 -.016750  .094950
O   .593950  .483250  .094950
O   .593950 -.016750  .594950
O  1.093950  .483250  .094950
O  1.093950  .483250  .594950
O   .593950  .483250  .594950
O  1.093950 -.016750  .594950
O   .685700 -.061850 -.255050
O  1.185700 -.061850 -.255050
O   .685700  .438150 -.255050
O   .685700 -.061850  .244950
O  1.185700  .438150 -.255050
O  1.185700  .438150  .244950
O   .685700  .438150  .244950
O  1.185700 -.061850  .244950
O   .895750 -.085500 -.147300
O  1.395750 -.085500 -.147300
O   .895750  .414500 -.147300
O   .895750 -.085500  .352700
O  1.395750  .414500 -.147300
O  1.395750  .414500  .352700
O   .895750  .414500  .352700
O  1.395750 -.085500  .352700
O   .259850 -.211350  .123500
O   .759850 -.211350  .123500
O   .259850  .288650  .123500
O   .259850 -.211350  .623500
O   .759850  .288650  .123500
O   .759850  .288650  .623500
O   .259850  .288650  .623500
O   .759850 -.211350  .623500
O   .543800 -.166650  .204250
O  1.043800 -.166650  .204250
O   .543800  .333350  .204250
O   .543800 -.166650  .704250
O  1.043800  .333350  .204250
O  1.043800  .333350  .704250
O   .543800  .333350  .704250
O  1.043800 -.166650  .704250
O   .645400  .259900  .261700
O  1.145400  .259900  .261700
O   .645400  .759900  .261700
O   .645400  .259900  .761700
O  1.145400  .759900  .261700
O  1.145400  .759900  .761700
O   .645400  .759900  .761700
O  1.145400  .259900  .761700
O   .422650 -.384600  .126550
O   .922650 -.384600  .126550
O   .422650  .115400  .126550
O   .422650 -.384600  .626550
O   .922650  .115400  .126550
O   .922650  .115400  .626550
O   .422650  .115400  .626550
O   .922650 -.384600  .626550
O   .476950 -.185150 -.184800
O   .976950 -.185150 -.184800
O   .476950  .314850 -.184800
O   .476950 -.185150  .315200
O   .976950  .314850 -.184800
O   .976950  .314850  .315200
O   .476950  .314850  .315200
O   .976950 -.185150  .315200
O   .571800 -.005050 -.035150
O  1.071800 -.005050 -.035150
O   .571800  .494950 -.035150
O   .571800 -.005050  .464850
O  1.071800  .494950 -.035150
O  1.071800  .494950  .464850
O   .571800  .494950  .464850
O  1.071800 -.005050  .464850
O   .354000 -.274400  .055100
O   .854000 -.274400  .055100
O   .354000  .225600  .055100
O   .354000 -.274400  .555100
O   .854000  .225600  .055100
O   .854000  .225600  .555100
O   .354000  .225600  .555100
O   .854000 -.274400  .555100
O   .653100  .078700 -.100250
O  1.153100  .078700 -.100250
O   .653100  .578700 -.100250
O   .653100  .078700  .399750
O  1.153100  .578700 -.100250
O  1.153100  .578700  .399750
O   .653100  .578700  .399750
O  1.153100  .078700  .399750
H   .187100  .168000  .046450
H   .687100  .168000  .046450
H   .187100  .668000  .046450
H   .187100  .168000  .546450
H   .687100  .668000  .046450
H   .687100  .668000  .546450
H   .187100  .668000  .546450
H   .687100  .168000  .546450
H   .157500  .161300  .123600
H   .657500  .161300  .123600
H   .157500  .661300  .123600
H   .157500  .161300  .623600
H   .657500  .661300  .123600
H   .657500  .661300  .623600
H   .157500  .661300  .623600
H   .657500  .161300  .623600
H   .557300  .173750  .156450
H  1.057300  .173750  .156450
H   .557300  .673750  .156450
H   .557300  .173750  .656450
H  1.057300  .673750  .156450
H  1.057300  .673750  .656450
H   .557300  .673750  .656450
H  1.057300  .173750  .656450
H   .558850  .229600  .096800
H  1.058850  .229600  .096800
H   .558850  .729600  .096800
H   .558850  .229600  .596800
H  1.058850  .729600  .096800
H  1.058850  .729600  .596800
H   .558850  .729600  .596800
H  1.058850  .229600  .596800
H   .470250  .090200  .225800
H   .970250  .090200  .225800
H   .470250  .590200  .225800
H   .470250  .090200  .725800
H   .970250  .590200  .225800
H   .970250  .590200  .725800
H   .470250  .590200  .725800
H   .970250  .090200  .725800
H   .549200  .093200  .247050
H  1.049200  .093200  .247050
H   .549200  .593200  .247050
H   .549200  .093200  .747050
H  1.049200  .593200  .247050
H  1.049200  .593200  .747050
H   .549200  .593200  .747050
H  1.049200  .093200  .747050
H   .362100 -.175600 -.274300
H   .862100 -.175600 -.274300
H   .362100  .324400 -.274300
H   .362100 -.175600  .225700
H   .862100  .324400 -.274300
H   .862100  .324400  .225700
H   .362100  .324400  .225700
H   .862100 -.175600  .225700
H   .290600 -.192200 -.298350
H   .790600 -.192200 -.298350
H   .290600  .307800 -.298350
H   .290600 -.192200  .201650
H   .790600  .307800 -.298350
H   .790600  .307800  .201650
H   .290600  .307800  .201650
H   .790600 -.192200  .201650
H   .673850 -.072050  .095050
H  1.173850 -.072050  .095050
H   .673850  .427950  .095050
H   .673850 -.072050  .595050
H  1.173850  .427950  .095050
H  1.173850  .427950  .595050
H   .673850  .427950  .595050
H  1.173850 -.072050  .595050
H   .736900 -.129100  .105150
H  1.236900 -.129100  .105150
H   .736900  .370900  .105150
H   .736900 -.129100  .605150
H  1.236900  .370900  .105150
H  1.236900  .370900  .605150
H   .736900  .370900  .605150
H  1.236900 -.129100  .605150
H   .636400 -.150250 -.061900
H  1.136400 -.150250 -.061900
H   .636400  .349750 -.061900
H   .636400 -.150250  .438100
H  1.136400  .349750 -.061900
H  1.136400  .349750  .438100
H   .636400  .349750  .438100
H  1.136400 -.150250  .438100
H   .677550 -.126050 -.124150
H  1.177550 -.126050 -.124150
H   .677550  .373950 -.124150
H   .677550 -.126050  .375850
H  1.177550  .373950 -.124150
H  1.177550  .373950  .375850
H   .677550  .373950  .375850
H  1.177550 -.126050  .375850
H   .380500 -.300450 -.120700
H   .880500 -.300450 -.120700
H   .380500  .199550 -.120700
H   .380500 -.300450  .379300
H   .880500  .199550 -.120700
H   .880500  .199550  .379300
H   .380500  .199550  .379300
H   .880500 -.300450  .379300
H   .362650 -.272550 -.049400
H   .862650 -.272550 -.049400
H   .362650  .227450 -.049400
H   .362650 -.272550  .450600
H   .862650  .227450 -.049400
H   .862650  .227450  .450600
H   .362650  .227450  .450600
H   .862650 -.272550  .450600
H   .273000  .100100 -.005800
H   .773000  .100100 -.005800
H   .273000  .600100 -.005800
H   .273000  .100100  .494200
H   .773000  .600100 -.005800
H   .773000  .600100  .494200
H   .273000  .600100  .494200
H   .773000  .100100  .494200
H   .275100  .163450 -.048550
H   .775100  .163450 -.048550
H   .275100  .663450 -.048550
H   .275100  .163450  .451450
H   .775100  .663450 -.048550
H   .775100  .663450  .451450
H   .275100  .663450  .451450
H   .775100  .163450  .451450
H   .936600  .245150  .271600
H  1.436600  .245150  .271600
H   .936600  .745150  .271600
H   .936600  .245150  .771600
H  1.436600  .745150  .271600
H  1.436600  .745150  .771600
H   .936600  .745150  .771600
H  1.436600  .245150  .771600
H   .923300  .202350  .205250
H  1.423300  .202350  .205250
H   .923300  .702350  .205250
H   .923300  .202350  .705250
H  1.423300  .702350  .205250
H  1.423300  .702350  .705250
H   .923300  .702350  .705250
H  1.423300  .202350  .705250
H   .799150  .092450  .287900
H  1.299150  .092450  .287900
H   .799150  .592450  .287900
H   .799150  .092450  .787900
H  1.299150  .592450  .287900
H  1.299150  .592450  .787900
H   .799150  .592450  .787900
H  1.299150  .092450  .787900
H   .862750  .143300  .280950
H  1.362750  .143300  .280950
H   .862750  .643300  .280950
H   .862750  .143300  .780950
H  1.362750  .643300  .280950
H  1.362750  .643300  .780950
H   .862750  .643300  .780950
H  1.362750  .143300  .780950
H   .490250 -.094100 -.342100
H   .990250 -.094100 -.342100
H   .490250  .405900 -.342100
H   .490250 -.094100  .157900
H   .990250  .405900 -.342100
H   .990250  .405900  .157900
H   .490250  .405900  .157900
H   .990250 -.094100  .157900
H   .438700 -.038300 -.324600
H   .938700 -.038300 -.324600
H   .438700  .461700 -.324600
H   .438700 -.038300  .175400
H   .938700  .461700 -.324600
H   .938700  .461700  .175400
H   .438700  .461700  .175400
H   .938700 -.038300  .175400
H   .303100  .004300  .068600
H   .803100  .004300  .068600
H   .303100  .504300  .068600
H   .303100  .004300  .568600
H   .803100  .504300  .068600
H   .803100  .504300  .568600
H   .303100  .504300  .568600
H   .803100  .004300  .568600
H   .361550  .017700  .013200
H   .861550  .017700  .013200
H   .361550  .517700  .013200
H   .361550  .017700  .513200
H   .861550  .517700  .013200
H   .861550  .517700  .513200
H   .361550  .517700  .513200
H   .861550  .017700  .513200
H   .426850  .052450 -.076000
H   .926850  .052450 -.076000
H   .426850  .552450 -.076000
H   .426850  .052450  .424000
H   .926850  .552450 -.076000
H   .926850  .552450  .424000
H   .426850  .552450  .424000
H   .926850  .052450  .424000
H   .413300 -.028400 -.090750
H   .913300 -.028400 -.090750
H   .413300  .471600 -.090750
H   .413300 -.028400  .409250
H   .913300  .471600 -.090750
H   .913300  .471600  .409250
H   .413300  .471600  .409250
H   .913300 -.028400  .409250
H   .212550  .021600 -.239500
H   .712550  .021600 -.239500
H   .212550  .521600 -.239500
H   .212550  .021600  .260500
H   .712550  .521600 -.239500
H   .712550  .521600  .260500
H   .212550  .521600  .260500
H   .712550  .021600  .260500
H   .186100  .077150 -.186250
H   .686100  .077150 -.186250
H   .186100  .577150 -.186250
H   .186100  .077150  .313750
H   .686100  .577150 -.186250
H   .686100  .577150  .313750
H   .186100  .577150  .313750
H   .686100  .077150  .313750
H   .514850 -.168700  .030250
H  1.014850 -.168700  .030250
H   .514850  .331300  .030250
H   .514850 -.168700  .530250
H  1.014850  .331300  .030250
H  1.014850  .331300  .530250
H   .514850  .331300  .530250
H  1.014850 -.168700  .530250
H   .454150 -.133050  .065700
H   .954150 -.133050  .065700
H   .454150  .366950  .065700
H   .454150 -.133050  .565700
H   .954150  .366950  .065700
H   .954150  .366950  .565700
H   .454150  .366950  .565700
H   .954150 -.133050  .565700
H   .610900  .223900 -.150800
H  1.110900  .223900 -.150800
H   .610900  .723900 -.150800
H   .610900  .223900  .349200
H  1.110900  .723900 -.150800
H  1.110900  .723900  .349200
H   .610900  .723900  .349200
H  1.110900  .223900  .349200
H   .613600  .151350 -.113200
H  1.113600  .151350 -.113200
H   .613600  .651350 -.113200
H   .613600  .151350  .386800
H  1.113600  .651350 -.113200
H  1.113600  .651350  .386800
H   .613600  .651350  .386800
H  1.113600  .151350  .386800
H   .790600 -.221200 -.121050
H  1.290600 -.221200 -.121050
H   .790600  .278800 -.121050
H   .790600 -.221200  .378950
H  1.290600  .278800 -.121050
H  1.290600  .278800  .378950
H   .790600  .278800  .378950
H  1.290600 -.221200  .378950
H   .780250 -.169150 -.182550
H  1.280250 -.169150 -.182550
H   .780250  .330850 -.182550
H   .780250 -.169150  .317450
H  1.280250  .330850 -.182550
H  1.280250  .330850  .317450
H   .780250  .330850  .317450
H  1.280250 -.169150  .317450
H   .321950 -.047300 -.267100
H   .821950 -.047300 -.267100
H   .321950  .452700 -.267100
H   .321950 -.047300  .232900
H   .821950  .452700 -.267100
H   .821950  .452700  .232900
H   .321950  .452700  .232900
H   .821950 -.047300  .232900
H   .352050  .024300 -.254550
H   .852050  .024300 -.254550
H   .352050  .524300 -.254550
H   .352050  .024300  .245450
H   .852050  .524300 -.254550
H   .852050  .524300  .245450
H   .352050  .524300  .245450
H   .852050  .024300  .245450
H   .468900  .109550 -.169000
H   .968900  .109550 -.169000
H   .468900  .609550 -.169000
H   .468900  .109550  .331000
H   .968900  .609550 -.169000
H   .968900  .609550  .331000
H   .468900  .609550  .331000
H   .968900  .109550  .331000
H   .504450  .158600 -.112550
H  1.004450  .158600 -.112550
H   .504450  .658600 -.112550
H   .504450  .158600  .387450
H  1.004450  .658600 -.112550
H  1.004450  .658600  .387450
H   .504450  .658600  .387450
H  1.004450  .158600  .387450
H   .660300  .087800 -.293700
H  1.160300  .087800 -.293700
H   .660300  .587800 -.293700
H   .660300  .087800  .206300
H  1.160300  .587800 -.293700
H  1.160300  .587800  .206300
H   .660300  .587800  .206300
H  1.160300  .087800  .206300
H   .615400  .062500 -.360000
H  1.115400  .062500 -.360000
H   .615400  .562500 -.360000
H   .615400  .062500  .140000
H  1.115400  .562500 -.360000
H  1.115400  .562500  .140000
H   .615400  .562500  .140000
H  1.115400  .062500  .140000
H   .587050 -.243050 -.035800
H  1.087050 -.243050 -.035800
H   .587050  .256950 -.035800
H   .587050 -.243050  .464200
H  1.087050  .256950 -.035800
H  1.087050  .256950  .464200
H   .587050  .256950  .464200
H  1.087050 -.243050  .464200
H   .633400 -.232000  .029950
H  1.133400 -.232000  .029950
H   .633400  .268000  .029950
H   .633400 -.232000  .529950
H  1.133400  .268000  .029950
H  1.133400  .268000  .529950
H   .633400  .268000  .529950
H  1.133400 -.232000  .529950
H   .584550 -.005850  .047900
H  1.084550 -.005850  .047900
H   .584550  .494150  .047900
H   .584550 -.005850  .547900
H  1.084550  .494150  .047900
H  1.084550  .494150  .547900
H   .584550  .494150  .547900
H  1.084550 -.005850  .547900
H   .547600 -.031100  .111850
H  1.047600 -.031100  .111850
H   .547600  .468900  .111850
H   .547600 -.031100  .611850
H  1.047600  .468900  .111850
H  1.047600  .468900  .611850
H   .547600  .468900  .611850
H  1.047600 -.031100  .611850
H   .651300 -.097100 -.245800
H  1.151300 -.097100 -.245800
H   .651300  .402900 -.245800
H   .651300 -.097100  .254200
H  1.151300  .402900 -.245800
H  1.151300  .402900  .254200
H   .651300  .402900  .254200
H  1.151300 -.097100  .254200
H   .703350 -.071350 -.303000
H  1.203350 -.071350 -.303000
H   .703350  .428650 -.303000
H   .703350 -.071350  .197000
H  1.203350  .428650 -.303000
H  1.203350  .428650  .197000
H   .703350  .428650  .197000
H  1.203350 -.071350  .197000
H   .852000 -.101750 -.131750
H  1.352000 -.101750 -.131750
H   .852000  .398250 -.131750
H   .852000 -.101750  .368250
H  1.352000  .398250 -.131750
H  1.352000  .398250  .368250
H   .852000  .398250  .368250
H  1.352000 -.101750  .368250
H   .885800 -.069600 -.195150
H  1.385800 -.069600 -.195150
H   .885800  .430400 -.195150
H   .885800 -.069600  .304850
H  1.385800  .430400 -.195150
H  1.385800  .430400  .304850
H   .885800  .430400  .304850
H  1.385800 -.069600  .304850
H   .297000 -.229850  .095950
H   .797000 -.229850  .095950
H   .297000  .270150  .095950
H   .297000 -.229850  .595950
H   .797000  .270150  .095950
H   .797000  .270150  .595950
H   .297000  .270150  .595950
H   .797000 -.229850  .595950
H   .220650 -.243000  .115150
H   .720650 -.243000  .115150
H   .220650  .257000  .115150
H   .220650 -.243000  .615150
H   .720650  .257000  .115150
H   .720650  .257000  .615150
H   .220650  .257000  .615150
H   .720650 -.243000  .615150
H   .508050 -.175600  .238400
H  1.008050 -.175600  .238400
H   .508050  .324400  .238400
H   .508050 -.175600  .738400
H  1.008050  .324400  .238400
H  1.008050  .324400  .738400
H   .508050  .324400  .738400
H  1.008050 -.175600  .738400
H   .547000 -.213050  .186450
H  1.047000 -.213050  .186450
H   .547000  .286950  .186450
H   .547000 -.213050  .686450
H  1.047000  .286950  .186450
H  1.047000  .286950  .686450
H   .547000  .286950  .686450
H  1.047000 -.213050  .686450
H   .623400  .300500  .247400
H  1.123400  .300500  .247400
H   .623400  .800500  .247400
H   .623400  .300500  .747400
H  1.123400  .800500  .247400
H  1.123400  .800500  .747400
H   .623400  .800500  .747400
H  1.123400  .300500  .747400
H   .682750  .275600  .288300
H  1.182750  .275600  .288300
H   .682750  .775600  .288300
H   .682750  .275600  .788300
H  1.182750  .775600  .288300
H  1.182750  .775600  .788300
H   .682750  .775600  .788300
H  1.182750  .275600  .788300
H   .398750 -.418850  .096950
H   .898750 -.418850  .096950
H   .398750  .081150  .096950
H   .398750 -.418850  .596950
H   .898750  .081150  .096950
H   .898750  .081150  .596950
H   .398750  .081150  .596950
H   .898750 -.418850  .596950
H   .467550 -.375500  .108450
H   .967550 -.375500  .108450
H   .467550  .124500  .108450
H   .467550 -.375500  .608450
H   .967550  .124500  .108450
H   .967550  .124500  .608450
H   .467550  .124500  .608450
H   .967550 -.375500  .608450
H   .454950 -.145900 -.163050
H   .954950 -.145900 -.163050
H   .454950  .354100 -.163050
H   .454950 -.145900  .336950
H   .954950  .354100 -.163050
H   .954950  .354100  .336950
H   .454950  .354100  .336950
H   .954950 -.145900  .336950
H   .507400 -.197850 -.146800
H  1.007400 -.197850 -.146800
H   .507400  .302150 -.146800
H   .507400 -.197850  .353200
H  1.007400  .302150 -.146800
H  1.007400  .302150  .353200
H   .507400  .302150  .353200
H  1.007400 -.197850  .353200
H   .591700 -.044400 -.066900
H  1.091700 -.044400 -.066900
H   .591700  .455600 -.066900
H   .591700 -.044400  .433100
H  1.091700  .455600 -.066900
H  1.091700  .455600  .433100
H   .591700  .455600  .433100
H  1.091700 -.044400  .433100
H   .524600 -.005300 -.039650
H  1.024600 -.005300 -.039650
H   .524600  .494700 -.039650
H   .524600 -.005300  .460350
H  1.024600  .494700 -.039650
H  1.024600  .494700  .460350
H   .524600  .494700  .460350
H  1.024600 -.005300  .460350
H   .374750 -.310300  .088200
H   .874750 -.310300  .088200
H   .374750  .189700  .088200
H   .374750 -.310300  .588200
H   .874750  .189700  .088200
H   .874750  .189700  .588200
H   .374750  .189700  .588200
H   .874750 -.310300  .588200
H   .388450 -.236950  .047450
H   .888450 -.236950  .047450
H   .388450  .263050  .047450
H   .388450 -.236950  .547450
H   .888450  .263050  .047450
H   .888450  .263050  .547450
H   .388450  .263050  .547450
H   .888450 -.236950  .547450
H   .621000  .051350 -.072500
H  1.121000  .051350 -.072500
H   .621000  .551350 -.072500
H   .621000  .051350  .427500
H  1.121000  .551350 -.072500
H  1.121000  .551350  .427500
H   .621000  .551350  .427500
H  1.121000  .051350  .427500
H   .687600  .098150 -.064850
H  1.187600  .098150 -.064850
H   .687600  .598150 -.064850
H   .687600  .098150  .435150
H  1.187600  .598150 -.064850
H  1.187600  .598150  .435150
H   .687600  .598150  .435150
H  1.187600  .098150  .435150
