 &control
    title = ' Water 32 molecules ',
    calculation = 'cp',
    restart_mode = 'from_scratch', ! 'restart',
    ndr = 50,
    ndw = 50,
    nstep  = 10,
    iprint = 10, 
    isave  = 100,
    tstress = .TRUE.,
    tprnfor = .TRUE.,
    dt    = 5.0d0,
    etot_conv_thr = 1.d-8,
    prefix = 'h2o'
    pseudo_dir='/home/ballabio/O-sesame/pseudo/',
    outdir='/home/ballabio/tmp/intel/',
 /
 &system
    ibrav = 14, 
    celldm(1) = 18.65, 
    celldm(2) = 1.0, 
    celldm(3) = 1.0, 
    celldm(4) = 0.0, 
    celldm(5) = 0.0, 
    celldm(6) = 0.0, 
    nat = 96,
    ntyp = 2,
    nbnd = 128,
    nelec = 256,
    ecutwfc = 70.0,
    ecfixed = 68.0,
    qcutz = 68.0,
    q2sigma = 8.0,
    nr1b= 10, nr2b = 10, nr3b = 10,
    xc_type = 'BLYP',
 /
 &electrons
    emass = 400.d0,
    emass_cutoff = 2.5d0,
    orthogonalization = 'ortho',
    ortho_eps = 5.d-8,
    ortho_max = 15,
    electron_dynamics = 'sd',
    electron_velocities = 'zero',
    electron_temperature = 'not_controlled',
 /
 &ions
    ion_dynamics = 'none',
    ion_radius(1) = 0.8d0,
    ion_radius(2) = 0.5d0,
!    ion_velocities = 'zero',
    ion_temperature = 'not_controlled'
 /
 &cell
    cell_dynamics = 'none',
    cell_velocities = 'zero',
    press = 0.0d0,
    wmass = 70000.0d0
 /
ATOMIC_SPECIES
 O  16.0d0   O.BLYP.UPF 4
 H  1.0079d0 H.fpmd.UPF 4
ATOMIC_POSITIONS (crystal)
 O      0.3342   0.3858   0.1702
 O      1.0634   0.4197   0.2665
 O      1.0088   0.1409   0.5073
 O      0.6297  -0.3261  -0.5303
 O      1.4465  -0.1611   0.2161
 O      1.2637  -0.2524  -0.2121
 O      0.6889  -0.5572  -0.1900
 O      0.4894   0.2752  -0.0336
 O      1.8042   0.4375   0.4942
 O      1.6981   0.1893   0.5833
 O      0.9273  -0.1141  -0.7252
 O      0.6681   0.0772   0.0996
 O      0.8374   0.0165  -0.1115
 O      0.4164   0.1406  -0.4626
 O      0.9298  -0.3241   0.0546
 O      1.1835   0.3971  -0.2192
 O      1.5203  -0.3671  -0.2786
 O      0.7260  -0.0428  -0.5486
 O      0.9200   0.2746  -0.2521
 O      1.2450   0.2024  -0.6526
 O      1.1931  -0.4262   0.0049
 O      1.1879  -0.0335   0.1899
 O      1.3714  -0.1237  -0.5101
 O      1.7915  -0.1710  -0.2946
 O      0.5197  -0.4227   0.2470
 O      1.0876  -0.3333   0.4085
 O      1.2908   0.5198   0.5234
 O      0.8453  -0.7692   0.2531
 O      0.9539  -0.3703  -0.3696
 O      1.1436  -0.0101  -0.0703
 O      0.7080  -0.5488   0.1102
 O      1.3062   0.1574  -0.2005
 H      0.3742   0.3360   0.0929
 H      0.3150   0.3226   0.2472
 H      1.1146   0.3475   0.3129
 H      1.1177   0.4592   0.1936
 H      0.9405   0.1804   0.4516
 H      1.0984   0.1864   0.4941
 H      0.7242  -0.3512  -0.5486
 H      0.5812  -0.3844  -0.5967
 H      1.3477  -0.1441   0.1901
 H      1.4738  -0.2582   0.2103
 H      1.2728  -0.3005  -0.1238
 H      1.3551  -0.2521  -0.2483
 H      0.7610  -0.6009  -0.2414
 H      0.7253  -0.5451  -0.0988
 H      0.5460   0.2002  -0.0116
 H      0.5502   0.3269  -0.0971
 H      1.8732   0.4903   0.5432
 H      1.8466   0.4047   0.4105
 H      1.5983   0.1849   0.5758
 H      1.7255   0.2866   0.5619
 H      0.9805  -0.1882  -0.6842
 H      0.8774  -0.0766  -0.6492
 H      0.6062   0.0086   0.1372
 H      0.7231   0.0354   0.0264
 H      0.8537   0.1049  -0.1520
 H      0.8266  -0.0568  -0.1815
 H      0.4251   0.0432  -0.4790
 H      0.3722   0.1543  -0.3725
 H      1.0297  -0.3374   0.0605
 H      0.9083  -0.2661   0.1314
 H      1.2218   0.4478  -0.3016
 H      1.2272   0.3027  -0.2264
 H      1.5812  -0.4424  -0.2421
 H      1.5605  -0.3383  -0.3651
 H      0.6439  -0.0946  -0.5342
 H      0.7041   0.0486  -0.5091
 H      0.9378   0.2191  -0.3380
 H      1.0089   0.3172  -0.2251
 H      1.3206   0.1756  -0.5874
 H      1.2308   0.1250  -0.7200
 H      1.1741  -0.4861  -0.0716
 H      1.2668  -0.4640   0.0599
 H      1.1691  -0.0117   0.0958
 H      1.0952  -0.0622   0.2237
 H      1.3026  -0.1942  -0.4916
 H      1.4067  -0.1427  -0.6060
 H      1.7040  -0.2035  -0.2635
 H      1.7716  -0.1392  -0.3903
 H      0.5940  -0.4597   0.1919
 H      0.4413  -0.4860   0.2303
 H      1.0161  -0.3512   0.4768
 H      1.0940  -0.4261   0.3729
 H      1.2468   0.6010   0.4948
 H      1.3655   0.5512   0.5766
 H      0.7975  -0.8377   0.1939
 H      0.9351  -0.7510   0.2169
 H      0.9099  -0.2918  -0.3261
 H      1.0148  -0.3957  -0.2936
 H      1.1834  -0.0888  -0.1338
 H      1.0492  -0.0106  -0.0793
 H      0.7495  -0.6206   0.1764
 H      0.7769  -0.4739   0.0949
 H      1.2420   0.1027  -0.1450
 H      1.3752   0.1963  -0.1297
KSOUT
 2
 1 4
