&inputpp
 outdir   = './out/'
 prefix   = 'Si'
 seedname = 'Si_emp'
 wan_mode   =  'standalone'
 write_unk  = .true.
 spin_component = 'down'
/
