 &inputhp
   prefix = 'LiCoO2',
   outdir = '/scratch/timrov/WORK_Hubbard_UV/PORTING/q-e_v5/q-e/tempdir/',
   nq1 = 2, nq2 = 2, nq3 = 2,
   conv_thr_chi = 1.0d-8,
   iverbosity = 2
 /
