 &control
    title = ' Water Molecule ',
    calculation = 'cp',
    restart_mode = 'from_scratch',
    ndr = 50,
    ndw = 50,
    nstep  = 400,
    iprint = 1,
    isave  = 401,
    !tstress = .TRUE., ! not yet supported for metaGGA nspin2
    tprnfor = .TRUE.,
    dt    = 5.0d0,
    etot_conv_thr = 1.d-6,
    ekin_conv_thr = 1.d-4,
    prefix = 'h2o'
    verbosity = 'medium'
 /
 &system
    ibrav = 1,
    celldm(1) = 12.0,
    nat  = 3,
    ntyp = 2,
    nbnd = 4,
    ecutwfc = 40.0,
    input_dft = 'scan'
    nspin = 2
 /
 &electrons
    emass = 400.d0,
    emass_cutoff = 2.5d0,
    orthogonalization = 'ortho',
    electron_dynamics = 'damp',
    electron_damping = 0.1
 /
 &ions
    ion_dynamics = 'none',
 /
ATOMIC_SPECIES
 O 16.0d0 O.blyp-mt.UPF
 H 1.00d0 H.blyp-vbc.UPF
ATOMIC_POSITIONS (bohr)
   O     0.0099    0.0099    0.0000  0 0 0
   H     1.8325   -0.2243   -0.0001  1 1 1
   H    -0.2243    1.8325    0.0002  1 1 1
