---
&inputph
tr2_ph=1.0d-16,
prefix='mos2',
outdir = './'
fildyn='mos2.dyn.xml',
fildvscf='dvscf'
ldisp=.true.,
epsil=.true.,
nq1=2,
nq2=2,
nq3=1
/
