 &control
    calculation='scf'
    prefix='mos2'
    outdir='./'
    pseudo_dir = '../../pseudo/'
    verbosity = 'high',
 /
 &system
    ibrav=  4,
    celldm(1) = 6.02019
    celldm(3) = 5.33626 
    ntyp = 2,
    nat =  3,
    ecutwfc = 25,
    noncolin=.true.
    lspinorb=.true.
    assume_isolated='2D',
 /
 &electrons
    diagonalization='david'
    mixing_beta = 0.7
    conv_thr = 1.0d-12
 /
ATOMIC_SPECIES
Mo 95.962 Mo-PBE.upf
S  32.065 S-PBE.upf
ATOMIC_POSITIONS crystal
    Mo 0.33333333333333333333   0.66666666666666666667  0.0
    S  0.66666666666666666667   0.33333333333333333333 -0.0919442350
    S  0.66666666666666666667   0.33333333333333333333  0.0919442350
K_POINTS automatic
   4 4 1 0 0 0
