    14
 Wannier centres, written by Wannier90 on16Sep2025 at 20:53:14 
X          0.00000001       3.96466468       0.00679576
X         -0.00000053       3.96454009       0.00680141
X          0.00000052       3.96478921       0.00680136
X         -0.00000001       3.96466391       6.59553757
X          0.00000053       3.96478851       6.59553192
X         -0.00000052       3.96453939       6.59553197
Cr         0.00000000       3.96466430       0.00680040
Cr         0.00000000       3.96466430       6.59553293
I         -1.20958771       5.84849436       5.03824057
I          2.23623855       4.07028296       5.03824057
I         -1.02665084       1.97521558       5.03824057
I          1.20958771       2.08083423       1.56409277
I          4.63076145       3.85904564       1.56409277
I          4.46015084       0.00711657       1.56409277
