Phonon dispersions for BN
 &inputph
  tr2_ph=1.0d-15,
  prefix='bn',
  outdir='/home/sohier/Codes/q-e/tempdir/',
  fildyn='bn.disp.dyn',
  ldisp=.true.
  nq1=8, nq2=8, nq3=1,
 /
