 &input
  zasr='simple',  fildyn='bn.disp.dyn', flfrc='bn881.fc', loto_2d=.true.,
 /
