############################################################
##  Succinic acid molecular crystal from the X23 dataset
############################################################
&CONTROL
 calculation='scf'
 tprnfor = .true.
 tstress=.true.
/

&SYSTEM
  ibrav   = 0
  nat     = 28
  ntyp    = 3
  ecutwfc = 40
  vdw_corr='dft-d2'
/

&ELECTRONS
 conv_thr = 1.0e-8
/
CELL_PARAMETERS {angstrom}
   5.4658881   0.0000000  -0.0064642 
   0.0000000   8.7402311   0.0000000
  -0.1461485   0.0000000   5.1056962
ATOMIC_SPECIES
C  12.011  C-q4.gth
O  15.999  O-q6.gth
H  1.008   H-q1.gth
# Equivalent to:
#C  12.011  C.pbe-hgh.UPF
#O  15.999  O.pbe-hgh.UPF
#H  1.008   H.pbe-hgh.UPF
K_POINTS gamma
ATOMIC_POSITIONS {angstrom}
H 5.18880 7.27720 4.60380
H 0.13090 1.46300 0.49550
H 5.26190 5.83320 2.05090
H 0.05780 2.90710 3.04830
H 0.99920 7.80180 0.72890
H 4.32060 0.93850 4.37030
H 0.92610 5.30860 3.28180
H 4.39360 3.43170 1.81750
H 2.91770 7.73000 3.02560
H 2.40200 1.01020 2.07370
H 2.99080 5.38030 0.47270
H 2.32900 3.35990 4.62650
C 0.30810 8.14950 4.94730
C 5.01170 0.59070 0.15190
C 0.38110 4.96080 2.39450
C 4.93860 3.77940 2.70480
C 1.32350 8.44680 3.87140
C 3.99630 0.29350 1.22780
C 1.39650 4.66360 1.31850
C 3.92320 4.07670 3.78070
O 1.27950 0.70910 3.14440
O 4.04030 8.03110 1.95480
O 1.35260 3.66100 0.59160
O 3.96720 5.07920 4.50770
O 2.25880 7.51930 3.77840
O 3.06090 1.22090 1.32080
O 2.33190 5.59100 1.22550
O 2.98780 3.14920 3.87370
