 &energy_current
    delta_t=   0.500,
    file_output= 'current_hz_h2o',
    eta=   0.100,
    n_max=     5,
    add_i_current_b = .true.,
    re_init_wfc_1 = .true.,
    n_repeat_every_step = 10
 /
 &CONTROL
    calculation='md',
    restart_mode='from_scratch',
    pseudo_dir='../../pseudo',
    outdir='./save',
    disk_io = 'none',
/
 &SYSTEM
    ibrav=1,
    celldm(1) = 10.,
    nat=    3,
    ntyp=     2,
    ecutwfc=  80.0,
/
 &ELECTRONS
    conv_thr = 1.D-11,
    mixing_beta = 0.7,
/
 &IONS
    ion_velocities = 'from_input',
/
 ATOMIC_SPECIES
   H      1.00000000 H_HSCV_PBE-1.0.upf
   O     16.00000000 O_HSCV_PBE-1.0.upf
ATOMIC_POSITIONS {bohr}
 H     0.57164238	  0.94335166	  0.96565043
 H    -0.24339682	 -0.43501513	 -1.37874473
 O    -0.32824556	 -0.50852550	  0.41309430
 ATOMIC_VELOCITIES
 H   -0.38060793839043E-03     0.11644696237662E-02    -0.18055220775137E-03   
 H    0.14854564679755E-02    -0.65844095250918E-03    -0.37960675829410E-02   
 O   -0.69053033099076E-04    -0.31626791953560E-04     0.24853873691829E-03   
 K_POINTS {Gamma}

