
     Program PWSCF v.7.5 starts on 16Sep2025 at 20:50:47 
        Git branch: develop
        Last git commit: 7e86c4d7f8b367fcfbff0156d653f13ca55b1b03-dirty
        Last git commit date: Tue Sep 16 17:33:36 2025 +0000
        Last git commit subject: Merge branch 'vhpsi' into 'develop'

     This program is part of the open-source Quantum ESPRESSO suite
     for quantum simulation of materials; please cite
         "P. Giannozzi et al., J. Phys.:Condens. Matter 21 395502 (2009);
         "P. Giannozzi et al., J. Phys.:Condens. Matter 29 465901 (2017);
         "P. Giannozzi et al., J. Chem. Phys. 152 154105 (2020);
          URL http://www.quantum-espresso.org", 
     in publications or presentations arising from this work. More details at
     http://www.quantum-espresso.org/quote

     Parallel version (MPI), running on     4 processors

     MPI processes distributed on     1 nodes
     4915 MiB available memory on the printing compute node when the environment starts

     Waiting for input...
     Reading input from standard input

     Current dimensions of program PWSCF are:
     Max number of different atomic species (ntypx) = 10
     Max number of k-points (npk) =  40000
     Max angular momentum in pseudopotentials (lmaxx) =  4

     R & G space division:  proc/nbgrp/npool/nimage =       4
     Subspace diagonalization in iterative solution of the eigenvalue problem:
     a serial algorithm will be used


     Parallelization info
     --------------------
     sticks:   dense  smooth     PW     G-vecs:    dense   smooth      PW
     Min         539     539    147                15534    15534    2263
     Max         540     540    148                15535    15535    2267
     Sum        2159    2159    591                62139    62139    9063

     Using Slab Decomposition



     bravais-lattice index     =            0
     lattice parameter (alat)  =      14.5533  a.u.
     unit-cell volume          =    1819.5281 (a.u.)^3
     number of atoms/cell      =            8
     number of atomic types    =            2
     number of electrons       =        70.00 (up:  38.00, down:  32.00)
     number of Kohn-Sham states=           42
     kinetic-energy cutoff     =      40.0000  Ry
     charge density cutoff     =     160.0000  Ry
     scf convergence threshold =      1.6E-09
     mixing beta               =       0.4000
     number of iterations used =            8  plain     mixing
     Exchange-correlation= SLA  PW   NOGX NOGC
                           (   1   4   0   0   0   0   0)

     celldm(1)=  14.553268  celldm(2)=   0.000000  celldm(3)=   0.000000
     celldm(4)=   0.000000  celldm(5)=   0.000000  celldm(6)=   0.000000

     crystal axes: (cart. coord. in units of alat)
               a(1) = (   0.445836   0.257404   0.857306 )  
               a(2) = (  -0.445836   0.257404   0.857306 )  
               a(3) = (   0.000000  -0.514807   0.857306 )  

     reciprocal axes: (cart. coord. in units 2 pi/alat)
               b(1) = (  1.121488  0.647491  0.388815 )  
               b(2) = ( -1.121488  0.647491  0.388815 )  
               b(3) = (  0.000000 -1.294983  0.388815 )  


     PseudoPot. # 1 for Cr read from file:
     /home/nicola/CODES/q-e-kcw/pseudo/Cr.upf
     MD5 check sum: 9332952f98df5a55106659bd4400fc87
     Pseudo is Norm-conserving + core correction, Zval = 14.0
     Generated using ONCVPSP code by D. R. Hamann
     Using radial grid of 1600 points,  6 beta functions with: 
                l(1) =   0
                l(2) =   0
                l(3) =   1
                l(4) =   1
                l(5) =   2
                l(6) =   2

     PseudoPot. # 2 for I  read from file:
     /home/nicola/CODES/q-e-kcw/pseudo/I.upf
     MD5 check sum: 37b3402d197c10a8a0514fb01996ce4d
     Pseudo is Norm-conserving + core correction, Zval =  7.0
     Generated using ONCVPSP code by D. R. Hamann
     Using radial grid of 1182 points,  6 beta functions with: 
                l(1) =   0
                l(2) =   0
                l(3) =   1
                l(4) =   1
                l(5) =   2
                l(6) =   2

     atomic species   valence    mass     pseudopotential
     Cr               14.00    51.99610     Cr( 1.00)
     I                 7.00   126.90447     I ( 1.00)

     Starting magnetic structure 
     atomic species   magnetization
     Cr              0.357
     I               0.100

     No symmetry found


                                    s                        frac. trans.

      isym =  1     identity                                     

 cryst.   s( 1) = (     1          0          0      )
                  (     0          1          0      )
                  (     0          0          1      )

 cart.    s( 1) = (  1.0000000  0.0000000  0.0000000 )
                  (  0.0000000  1.0000000  0.0000000 )
                  (  0.0000000  0.0000000  1.0000000 )


   Cartesian axes

     site n.     atom                  positions (alat units)
         1        Cr     tau(   1) = (   0.0000000   0.5148074   0.0008830  )
         2        Cr     tau(   2) = (   0.0000000   0.5148074   0.8564228  )
         3        I      tau(   3) = (  -0.1570637   0.7594207   0.6542101  )
         4        I      tau(   4) = (   0.2903732   0.5285219   0.6542101  )
         5        I      tau(   5) = (  -0.1333095   0.2564796   0.6542101  )
         6        I      tau(   6) = (   0.1570637   0.2701941   0.2030958  )
         7        I      tau(   7) = (   0.6012994   0.5010929   0.2030958  )
         8        I      tau(   8) = (   0.5791458   0.0009241   0.2030958  )

   Crystallographic axes

     site n.     atom                  positions (cryst. coord.)
         1        Cr     tau(   1) = (  0.3336767  0.3336767 -0.6663233  )
         2        Cr     tau(   2) = (  0.6663233  0.6663233 -0.3336767  )
         3        I      tau(   3) = (  0.5699400  0.9222300 -0.7290700  )
         4        I      tau(   4) = (  0.9222300  0.2709300 -0.4300600  )
         5        I      tau(   5) = (  0.2709300  0.5699400 -0.0777700  )
         6        I      tau(   6) = (  0.4300600  0.0777700 -0.2709300  )
         7        I      tau(   7) = (  1.0777700 -0.2709300 -0.5699400  )
         8        I      tau(   8) = (  0.7290700 -0.5699400  0.0777700  )

     number of k points=     8
                       cart. coord. in units 2pi/alat
        k(    1) = (   0.0000000   0.0000000   0.0000000), wk =   0.1250000
        k(    2) = (   0.0000000  -0.6474914   0.1944075), wk =   0.1250000
        k(    3) = (  -0.5607440   0.3237457   0.1944075), wk =   0.1250000
        k(    4) = (  -0.5607440  -0.3237457   0.3888149), wk =   0.1250000
        k(    5) = (   0.5607440   0.3237457   0.1944075), wk =   0.1250000
        k(    6) = (   0.5607440  -0.3237457   0.3888149), wk =   0.1250000
        k(    7) = (   0.0000000   0.6474914   0.3888149), wk =   0.1250000
        k(    8) = (   0.0000000   0.0000000   0.5832224), wk =   0.1250000

                       cryst. coord.
        k(    1) = (   0.0000000   0.0000000   0.0000000), wk =   0.1250000
        k(    2) = (   0.0000000   0.0000000   0.5000000), wk =   0.1250000
        k(    3) = (   0.0000000   0.5000000  -0.0000000), wk =   0.1250000
        k(    4) = (   0.0000000   0.5000000   0.5000000), wk =   0.1250000
        k(    5) = (   0.5000000   0.0000000  -0.0000000), wk =   0.1250000
        k(    6) = (   0.5000000   0.0000000   0.5000000), wk =   0.1250000
        k(    7) = (   0.5000000   0.5000000  -0.0000000), wk =   0.1250000
        k(    8) = (   0.5000000   0.5000000   0.5000000), wk =   0.1250000

     Dense  grid:    62139 G-vectors     FFT dimensions: (  60,  60,  60)

     Dynamical RAM for                 wfc:       1.25 MB

     Dynamical RAM for     wfc (w. buffer):      21.17 MB

     Dynamical RAM for           str. fact:       0.47 MB

     Dynamical RAM for           local pot:       0.00 MB

     Dynamical RAM for          nlocal pot:       4.27 MB

     Dynamical RAM for                qrad:       2.03 MB

     Dynamical RAM for          rho,v,vnew:       3.89 MB

     Dynamical RAM for               rhoin:       1.30 MB

     Dynamical RAM for            rho*nmix:       7.59 MB

     Dynamical RAM for           G-vectors:       1.01 MB

     Dynamical RAM for          h,s,v(r/c):       0.32 MB

     Dynamical RAM for          <psi|beta>:       0.09 MB

     Dynamical RAM for                 psi:       2.49 MB

     Dynamical RAM for                hpsi:       2.49 MB

     Dynamical RAM for      wfcinit/wfcrot:       2.53 MB

     Estimated static dynamical RAM per process >      37.33 MB

     Estimated max dynamical RAM per process >      50.31 MB

     Estimated total dynamical RAM >     201.23 MB

     Check: negative core charge=   -0.000182
     Generating pointlists ...
     new r_m :   0.1459 (alat units)  2.1238 (a.u.) for type    1
     new r_m :   0.1459 (alat units)  2.1238 (a.u.) for type    2
     Cannot read rho : file not found

     Initial potential from superposition of free atoms

     starting charge      69.9974, renormalised to      70.0000
     Starting wfcs are   44 randomized atomic wfcs

     total cpu time spent up to now is        2.8 secs

     per-process dynamical memory:    42.6 Mb

     Self-consistent Calculation

     iteration #  1     ecut=    40.00 Ry     beta= 0.40
     Davidson diagonalization with overlap

---- Real-time Memory Report at c_bands before calling an iterative solver
            60 MiB given to the printing process from OS
            42 MiB allocation reported by mallinfo(arena+hblkhd)
          4751 MiB available memory on the node where the printing process lives
------------------
     c_bands:  1 eigenvalues not converged
     c_bands:  1 eigenvalues not converged
     c_bands:  1 eigenvalues not converged
     c_bands:  1 eigenvalues not converged
     c_bands:  1 eigenvalues not converged
     c_bands:  4 eigenvalues not converged
     ethr =  1.00E-05,  avg # of iterations = 17.0

     total cpu time spent up to now is       28.1 secs

     total energy              =    -508.72395723 Ry
     estimated scf accuracy    <       4.10353033 Ry

     total magnetization       =     6.00 Bohr mag/cell
     absolute magnetization    =     6.18 Bohr mag/cell

     iteration #  2     ecut=    40.00 Ry     beta= 0.40
     Davidson diagonalization with overlap

---- Real-time Memory Report at c_bands before calling an iterative solver
            70 MiB given to the printing process from OS
            52 MiB allocation reported by mallinfo(arena+hblkhd)
          4717 MiB available memory on the node where the printing process lives
------------------
     ethr =  5.86E-03,  avg # of iterations =  4.6

     total cpu time spent up to now is       37.9 secs

     total energy              =    -507.23808112 Ry
     estimated scf accuracy    <      21.51034552 Ry

     total magnetization       =     6.00 Bohr mag/cell
     absolute magnetization    =     6.01 Bohr mag/cell

     iteration #  3     ecut=    40.00 Ry     beta= 0.40
     Davidson diagonalization with overlap

---- Real-time Memory Report at c_bands before calling an iterative solver
            71 MiB given to the printing process from OS
            53 MiB allocation reported by mallinfo(arena+hblkhd)
          4710 MiB available memory on the node where the printing process lives
------------------
     ethr =  5.86E-03,  avg # of iterations =  2.0

     total cpu time spent up to now is       45.2 secs

     total energy              =    -510.08976219 Ry
     estimated scf accuracy    <       0.93779997 Ry

     total magnetization       =     6.00 Bohr mag/cell
     absolute magnetization    =     6.53 Bohr mag/cell

     iteration #  4     ecut=    40.00 Ry     beta= 0.40
     Davidson diagonalization with overlap

---- Real-time Memory Report at c_bands before calling an iterative solver
            72 MiB given to the printing process from OS
            53 MiB allocation reported by mallinfo(arena+hblkhd)
          4726 MiB available memory on the node where the printing process lives
------------------
     ethr =  1.34E-03,  avg # of iterations =  1.2

     total cpu time spent up to now is       51.3 secs

     total energy              =    -510.14026079 Ry
     estimated scf accuracy    <       0.08613368 Ry

     total magnetization       =     6.00 Bohr mag/cell
     absolute magnetization    =     6.76 Bohr mag/cell

     iteration #  5     ecut=    40.00 Ry     beta= 0.40
     Davidson diagonalization with overlap

---- Real-time Memory Report at c_bands before calling an iterative solver
            73 MiB given to the printing process from OS
            54 MiB allocation reported by mallinfo(arena+hblkhd)
          4722 MiB available memory on the node where the printing process lives
------------------
     ethr =  1.23E-04,  avg # of iterations =  2.9

     total cpu time spent up to now is       59.1 secs

     total energy              =    -510.15664391 Ry
     estimated scf accuracy    <       0.01656064 Ry

     total magnetization       =     6.00 Bohr mag/cell
     absolute magnetization    =     6.92 Bohr mag/cell

     iteration #  6     ecut=    40.00 Ry     beta= 0.40
     Davidson diagonalization with overlap

---- Real-time Memory Report at c_bands before calling an iterative solver
            74 MiB given to the printing process from OS
            55 MiB allocation reported by mallinfo(arena+hblkhd)
          4702 MiB available memory on the node where the printing process lives
------------------
     ethr =  2.37E-05,  avg # of iterations =  2.0

     total cpu time spent up to now is       66.0 secs

     total energy              =    -510.16025913 Ry
     estimated scf accuracy    <       0.00721963 Ry

     total magnetization       =     6.00 Bohr mag/cell
     absolute magnetization    =     6.97 Bohr mag/cell

     iteration #  7     ecut=    40.00 Ry     beta= 0.40
     Davidson diagonalization with overlap

---- Real-time Memory Report at c_bands before calling an iterative solver
            74 MiB given to the printing process from OS
            56 MiB allocation reported by mallinfo(arena+hblkhd)
          4697 MiB available memory on the node where the printing process lives
------------------
     ethr =  1.03E-05,  avg # of iterations =  1.4

     total cpu time spent up to now is       72.1 secs

     total energy              =    -510.16104960 Ry
     estimated scf accuracy    <       0.00062825 Ry

     total magnetization       =     6.00 Bohr mag/cell
     absolute magnetization    =     6.99 Bohr mag/cell

     iteration #  8     ecut=    40.00 Ry     beta= 0.40
     Davidson diagonalization with overlap

---- Real-time Memory Report at c_bands before calling an iterative solver
            75 MiB given to the printing process from OS
            57 MiB allocation reported by mallinfo(arena+hblkhd)
          4689 MiB available memory on the node where the printing process lives
------------------
     ethr =  8.97E-07,  avg # of iterations =  3.0

     total cpu time spent up to now is       80.0 secs

     total energy              =    -510.16115861 Ry
     estimated scf accuracy    <       0.00072382 Ry

     total magnetization       =     6.00 Bohr mag/cell
     absolute magnetization    =     7.00 Bohr mag/cell

     iteration #  9     ecut=    40.00 Ry     beta= 0.40
     Davidson diagonalization with overlap

---- Real-time Memory Report at c_bands before calling an iterative solver
            76 MiB given to the printing process from OS
            58 MiB allocation reported by mallinfo(arena+hblkhd)
          4682 MiB available memory on the node where the printing process lives
------------------
     ethr =  8.97E-07,  avg # of iterations =  1.1

     total cpu time spent up to now is       86.1 secs

     total energy              =    -510.16123612 Ry
     estimated scf accuracy    <       0.00001556 Ry

     total magnetization       =     6.00 Bohr mag/cell
     absolute magnetization    =     7.02 Bohr mag/cell

     iteration # 10     ecut=    40.00 Ry     beta= 0.40
     Davidson diagonalization with overlap

---- Real-time Memory Report at c_bands before calling an iterative solver
            77 MiB given to the printing process from OS
            59 MiB allocation reported by mallinfo(arena+hblkhd)
          4678 MiB available memory on the node where the printing process lives
------------------
     ethr =  2.22E-08,  avg # of iterations =  3.6

     total cpu time spent up to now is       94.8 secs

     total energy              =    -510.16124367 Ry
     estimated scf accuracy    <       0.00002606 Ry

     total magnetization       =     6.00 Bohr mag/cell
     absolute magnetization    =     7.03 Bohr mag/cell

     iteration # 11     ecut=    40.00 Ry     beta= 0.40
     Davidson diagonalization with overlap

---- Real-time Memory Report at c_bands before calling an iterative solver
            77 MiB given to the printing process from OS
            59 MiB allocation reported by mallinfo(arena+hblkhd)
          4699 MiB available memory on the node where the printing process lives
------------------
     ethr =  2.22E-08,  avg # of iterations =  1.5

     total cpu time spent up to now is      101.0 secs

     total energy              =    -510.16124413 Ry
     estimated scf accuracy    <       0.00000462 Ry

     total magnetization       =     6.00 Bohr mag/cell
     absolute magnetization    =     7.03 Bohr mag/cell

     iteration # 12     ecut=    40.00 Ry     beta= 0.40
     Davidson diagonalization with overlap

---- Real-time Memory Report at c_bands before calling an iterative solver
            77 MiB given to the printing process from OS
            59 MiB allocation reported by mallinfo(arena+hblkhd)
          4699 MiB available memory on the node where the printing process lives
------------------
     ethr =  6.60E-09,  avg # of iterations =  1.5

     total cpu time spent up to now is      107.6 secs

     total energy              =    -510.16124468 Ry
     estimated scf accuracy    <       0.00000020 Ry

     total magnetization       =     6.00 Bohr mag/cell
     absolute magnetization    =     7.03 Bohr mag/cell

     iteration # 13     ecut=    40.00 Ry     beta= 0.40
     Davidson diagonalization with overlap

---- Real-time Memory Report at c_bands before calling an iterative solver
            77 MiB given to the printing process from OS
            59 MiB allocation reported by mallinfo(arena+hblkhd)
          4699 MiB available memory on the node where the printing process lives
------------------
     ethr =  2.86E-10,  avg # of iterations =  2.6

     total cpu time spent up to now is      115.5 secs

     total energy              =    -510.16124473 Ry
     estimated scf accuracy    <          7.4E-09 Ry

     total magnetization       =     6.00 Bohr mag/cell
     absolute magnetization    =     7.03 Bohr mag/cell

     iteration # 14     ecut=    40.00 Ry     beta= 0.40
     Davidson diagonalization with overlap

---- Real-time Memory Report at c_bands before calling an iterative solver
            77 MiB given to the printing process from OS
            59 MiB allocation reported by mallinfo(arena+hblkhd)
          4698 MiB available memory on the node where the printing process lives
------------------
     ethr =  1.06E-11,  avg # of iterations =  4.0

     total cpu time spent up to now is      124.9 secs

     total energy              =    -510.16124473 Ry
     estimated scf accuracy    <          5.4E-09 Ry

     total magnetization       =     6.00 Bohr mag/cell
     absolute magnetization    =     7.03 Bohr mag/cell

     iteration # 15     ecut=    40.00 Ry     beta= 0.40
     Davidson diagonalization with overlap

---- Real-time Memory Report at c_bands before calling an iterative solver
            77 MiB given to the printing process from OS
            59 MiB allocation reported by mallinfo(arena+hblkhd)
          4694 MiB available memory on the node where the printing process lives
------------------
     ethr =  7.68E-12,  avg # of iterations =  2.0

     total cpu time spent up to now is      133.1 secs

     total energy              =    -510.16124473 Ry
     estimated scf accuracy    <          3.3E-09 Ry

     total magnetization       =     6.00 Bohr mag/cell
     absolute magnetization    =     7.03 Bohr mag/cell

     iteration # 16     ecut=    40.00 Ry     beta= 0.40
     Davidson diagonalization with overlap

---- Real-time Memory Report at c_bands before calling an iterative solver
            77 MiB given to the printing process from OS
            59 MiB allocation reported by mallinfo(arena+hblkhd)
          4706 MiB available memory on the node where the printing process lives
------------------
     ethr =  4.72E-12,  avg # of iterations =  2.0

     Magnetic moment per site  (integrated on atomic sphere of radius R)
     atom   1 (R=0.146)  charge= 12.3605  magn=  2.8491
     atom   2 (R=0.146)  charge= 12.3605  magn=  2.8491
     atom   3 (R=0.146)  charge=  4.1050  magn= -0.0479
     atom   4 (R=0.146)  charge=  4.1050  magn= -0.0479
     atom   5 (R=0.146)  charge=  4.1050  magn= -0.0479
     atom   6 (R=0.146)  charge=  4.1050  magn= -0.0479
     atom   7 (R=0.146)  charge=  4.1050  magn= -0.0479
     atom   8 (R=0.146)  charge=  4.1050  magn= -0.0479

     total cpu time spent up to now is      140.3 secs

     End of self-consistent calculation

 ------ SPIN UP ------------


          k = 0.0000 0.0000 0.0000 (  7759 PWs)   bands (ev):

   -70.5807 -70.5738 -42.1327 -42.1255 -42.1085 -42.1085 -42.0988 -42.0988
    -8.4968  -7.5138  -7.3347  -7.3347  -7.2545  -7.2545  -0.0625  -0.0311
     0.8887   0.8887   1.0134   1.0134   1.2570   1.9221   1.9221   1.9667
     2.3165   2.3165   2.6571   3.5612   3.5612   3.9123   4.0869   4.0869
     4.1440   4.3695   4.3695   4.4037   4.6551   4.6551   6.1168   6.1168
     6.4255   6.4255

     occupation numbers 
     1.0000   1.0000   1.0000   1.0000   1.0000   1.0000   1.0000   1.0000
     1.0000   1.0000   1.0000   1.0000   1.0000   1.0000   1.0000   1.0000
     1.0000   1.0000   1.0000   1.0000   1.0000   1.0000   1.0000   1.0000
     1.0000   1.0000   1.0000   1.0000   1.0000   1.0000   1.0000   1.0000
     1.0000   1.0000   1.0000   1.0000   1.0000   1.0000   0.0000   0.0000
     0.0000   0.0000

          k = 0.0000-0.6475 0.1944 (  7754 PWs)   bands (ev):

   -70.5777 -70.5742 -42.1251 -42.1238 -42.1125 -42.1078 -42.1042 -42.0900
    -8.0702  -7.8422  -7.4023  -7.3785  -7.3279  -7.3254  -0.1276   0.4717
     0.6087   1.1535   1.1665   1.4843   1.5478   1.7763   1.9978   2.0644
     2.1469   2.5211   3.1240   3.2236   3.2903   3.5039   3.7138   3.8404
     3.9508   4.1116   4.3927   4.4519   4.6084   4.8625   6.0008   6.1341
     6.2281   6.3199

     occupation numbers 
     1.0000   1.0000   1.0000   1.0000   1.0000   1.0000   1.0000   1.0000
     1.0000   1.0000   1.0000   1.0000   1.0000   1.0000   1.0000   1.0000
     1.0000   1.0000   1.0000   1.0000   1.0000   1.0000   1.0000   1.0000
     1.0000   1.0000   1.0000   1.0000   1.0000   1.0000   1.0000   1.0000
     1.0000   1.0000   1.0000   1.0000   1.0000   1.0000   0.0000   0.0000
     0.0000   0.0000

          k =-0.5607 0.3237 0.1944 (  7754 PWs)   bands (ev):

   -70.5777 -70.5742 -42.1251 -42.1238 -42.1125 -42.1078 -42.1042 -42.0900
    -8.0702  -7.8422  -7.4023  -7.3785  -7.3279  -7.3254  -0.1276   0.4717
     0.6087   1.1535   1.1665   1.4843   1.5478   1.7763   1.9978   2.0644
     2.1469   2.5211   3.1240   3.2236   3.2903   3.5039   3.7138   3.8404
     3.9508   4.1116   4.3927   4.4519   4.6084   4.8625   6.0008   6.1341
     6.2281   6.3199

     occupation numbers 
     1.0000   1.0000   1.0000   1.0000   1.0000   1.0000   1.0000   1.0000
     1.0000   1.0000   1.0000   1.0000   1.0000   1.0000   1.0000   1.0000
     1.0000   1.0000   1.0000   1.0000   1.0000   1.0000   1.0000   1.0000
     1.0000   1.0000   1.0000   1.0000   1.0000   1.0000   1.0000   1.0000
     1.0000   1.0000   1.0000   1.0000   1.0000   1.0000   0.0000   0.0000
     0.0000   0.0000

          k =-0.5607-0.3237 0.3888 (  7784 PWs)   bands (ev):

   -70.5830 -70.5806 -42.1341 -42.1261 -42.1201 -42.1146 -42.1136 -42.0932
    -7.9981  -7.7795  -7.4822  -7.4735  -7.4037  -7.2463  -0.0216   0.5579
     0.9533   1.0442   1.1175   1.4747   1.6591   1.9229   2.0318   2.1460
     2.2685   2.3679   2.5295   3.0605   3.0753   3.3712   3.6507   3.8543
     3.9559   4.1692   4.3841   4.5091   4.5289   4.7679   5.8742   6.0238
     6.2160   6.2997

     occupation numbers 
     1.0000   1.0000   1.0000   1.0000   1.0000   1.0000   1.0000   1.0000
     1.0000   1.0000   1.0000   1.0000   1.0000   1.0000   1.0000   1.0000
     1.0000   1.0000   1.0000   1.0000   1.0000   1.0000   1.0000   1.0000
     1.0000   1.0000   1.0000   1.0000   1.0000   1.0000   1.0000   1.0000
     1.0000   1.0000   1.0000   1.0000   1.0000   1.0000   0.0000   0.0000
     0.0000   0.0000

          k = 0.5607 0.3237 0.1944 (  7754 PWs)   bands (ev):

   -70.5777 -70.5742 -42.1251 -42.1238 -42.1125 -42.1078 -42.1042 -42.0900
    -8.0702  -7.8422  -7.4023  -7.3785  -7.3279  -7.3254  -0.1276   0.4717
     0.6087   1.1535   1.1665   1.4843   1.5478   1.7763   1.9978   2.0644
     2.1469   2.5211   3.1240   3.2236   3.2903   3.5039   3.7138   3.8404
     3.9508   4.1116   4.3927   4.4519   4.6084   4.8625   6.0008   6.1341
     6.2281   6.3199

     occupation numbers 
     1.0000   1.0000   1.0000   1.0000   1.0000   1.0000   1.0000   1.0000
     1.0000   1.0000   1.0000   1.0000   1.0000   1.0000   1.0000   1.0000
     1.0000   1.0000   1.0000   1.0000   1.0000   1.0000   1.0000   1.0000
     1.0000   1.0000   1.0000   1.0000   1.0000   1.0000   1.0000   1.0000
     1.0000   1.0000   1.0000   1.0000   1.0000   1.0000   0.0000   0.0000
     0.0000   0.0000

          k = 0.5607-0.3237 0.3888 (  7784 PWs)   bands (ev):

   -70.5830 -70.5806 -42.1341 -42.1261 -42.1201 -42.1146 -42.1136 -42.0932
    -7.9981  -7.7795  -7.4822  -7.4735  -7.4037  -7.2463  -0.0216   0.5579
     0.9533   1.0442   1.1175   1.4747   1.6591   1.9229   2.0318   2.1460
     2.2685   2.3679   2.5295   3.0605   3.0753   3.3712   3.6507   3.8543
     3.9559   4.1692   4.3841   4.5091   4.5289   4.7679   5.8742   6.0238
     6.2160   6.2997

     occupation numbers 
     1.0000   1.0000   1.0000   1.0000   1.0000   1.0000   1.0000   1.0000
     1.0000   1.0000   1.0000   1.0000   1.0000   1.0000   1.0000   1.0000
     1.0000   1.0000   1.0000   1.0000   1.0000   1.0000   1.0000   1.0000
     1.0000   1.0000   1.0000   1.0000   1.0000   1.0000   1.0000   1.0000
     1.0000   1.0000   1.0000   1.0000   1.0000   1.0000   0.0000   0.0000
     0.0000   0.0000

          k = 0.0000 0.6475 0.3888 (  7784 PWs)   bands (ev):

   -70.5830 -70.5806 -42.1341 -42.1261 -42.1201 -42.1146 -42.1136 -42.0932
    -7.9981  -7.7795  -7.4822  -7.4735  -7.4037  -7.2463  -0.0216   0.5579
     0.9533   1.0442   1.1175   1.4747   1.6591   1.9229   2.0318   2.1460
     2.2685   2.3679   2.5295   3.0605   3.0753   3.3712   3.6507   3.8543
     3.9559   4.1692   4.3841   4.5091   4.5289   4.7679   5.8742   6.0238
     6.2160   6.2997

     occupation numbers 
     1.0000   1.0000   1.0000   1.0000   1.0000   1.0000   1.0000   1.0000
     1.0000   1.0000   1.0000   1.0000   1.0000   1.0000   1.0000   1.0000
     1.0000   1.0000   1.0000   1.0000   1.0000   1.0000   1.0000   1.0000
     1.0000   1.0000   1.0000   1.0000   1.0000   1.0000   1.0000   1.0000
     1.0000   1.0000   1.0000   1.0000   1.0000   1.0000   0.0000   0.0000
     0.0000   0.0000

          k = 0.0000 0.0000 0.5832 (  7766 PWs)   bands (ev):

   -70.5792 -70.5760 -42.1329 -42.1124 -42.1124 -42.1058 -42.1058 -42.1026
    -8.3113  -7.7770  -7.3529  -7.3529  -7.2386  -7.2386  -0.1597   0.8907
     1.0775   1.0775   1.0797   1.0797   1.4118   1.8261   1.8261   1.9202
     2.3055   2.3055   2.4316   3.0188   3.3836   3.3836   3.8366   4.0826
     4.0826   4.2458   4.2458   4.4331   4.6287   4.6287   5.8652   5.8652
     6.4520   6.4520

     occupation numbers 
     1.0000   1.0000   1.0000   1.0000   1.0000   1.0000   1.0000   1.0000
     1.0000   1.0000   1.0000   1.0000   1.0000   1.0000   1.0000   1.0000
     1.0000   1.0000   1.0000   1.0000   1.0000   1.0000   1.0000   1.0000
     1.0000   1.0000   1.0000   1.0000   1.0000   1.0000   1.0000   1.0000
     1.0000   1.0000   1.0000   1.0000   1.0000   1.0000   0.0000   0.0000
     0.0000   0.0000

 ------ SPIN DOWN ----------


          k = 0.0000 0.0000 0.0000 (  7759 PWs)   bands (ev):

   -67.9307 -67.9243 -39.4098 -39.4022 -39.3606 -39.3606 -39.3498 -39.3498
    -8.4661  -7.5268  -7.3432  -7.3432  -7.2625  -7.2625   0.1919   0.2611
     1.0559   1.0559   1.2679   1.2679   1.3610   2.1678   2.5808   2.5808
     2.7153   2.8413   2.8413   3.9385   3.9385   4.4026   4.4356   4.4356
     6.5162   6.5339   6.5396   6.5396   6.8424   6.8424   7.5959   7.5959
     7.7697   7.7697

     occupation numbers 
     1.0000   1.0000   1.0000   1.0000   1.0000   1.0000   1.0000   1.0000
     1.0000   1.0000   1.0000   1.0000   1.0000   1.0000   1.0000   1.0000
     1.0000   1.0000   1.0000   1.0000   1.0000   1.0000   1.0000   1.0000
     1.0000   1.0000   1.0000   1.0000   1.0000   1.0000   1.0000   1.0000
     0.0000   0.0000   0.0000   0.0000   0.0000   0.0000   0.0000   0.0000
     0.0000   0.0000

          k = 0.0000-0.6475 0.1944 (  7754 PWs)   bands (ev):

   -67.9283 -67.9247 -39.4017 -39.4003 -39.3645 -39.3593 -39.3558 -39.3408
    -8.0471  -7.8363  -7.4123  -7.3893  -7.3353  -7.3315   0.1317   0.6972
     0.7341   1.3296   1.5247   1.8107   1.9021   2.1563   2.4480   2.4621
     2.6027   3.1215   3.2665   3.4420   3.4451   3.8176   3.8811   4.1999
     6.2300   6.3052   6.7927   6.7970   6.8881   7.0118   7.3817   7.6240
     7.7207   7.7270

     occupation numbers 
     1.0000   1.0000   1.0000   1.0000   1.0000   1.0000   1.0000   1.0000
     1.0000   1.0000   1.0000   1.0000   1.0000   1.0000   1.0000   1.0000
     1.0000   1.0000   1.0000   1.0000   1.0000   1.0000   1.0000   1.0000
     1.0000   1.0000   1.0000   1.0000   1.0000   1.0000   1.0000   1.0000
     0.0000   0.0000   0.0000   0.0000   0.0000   0.0000   0.0000   0.0000
     0.0000   0.0000

          k =-0.5607 0.3237 0.1944 (  7754 PWs)   bands (ev):

   -67.9283 -67.9247 -39.4017 -39.4003 -39.3645 -39.3593 -39.3558 -39.3408
    -8.0471  -7.8363  -7.4123  -7.3893  -7.3353  -7.3315   0.1317   0.6972
     0.7341   1.3296   1.5247   1.8107   1.9021   2.1563   2.4480   2.4621
     2.6027   3.1215   3.2665   3.4420   3.4451   3.8176   3.8811   4.1999
     6.2300   6.3052   6.7927   6.7970   6.8881   7.0118   7.3817   7.6240
     7.7207   7.7270

     occupation numbers 
     1.0000   1.0000   1.0000   1.0000   1.0000   1.0000   1.0000   1.0000
     1.0000   1.0000   1.0000   1.0000   1.0000   1.0000   1.0000   1.0000
     1.0000   1.0000   1.0000   1.0000   1.0000   1.0000   1.0000   1.0000
     1.0000   1.0000   1.0000   1.0000   1.0000   1.0000   1.0000   1.0000
     0.0000   0.0000   0.0000   0.0000   0.0000   0.0000   0.0000   0.0000
     0.0000   0.0000

          k =-0.5607-0.3237 0.3888 (  7784 PWs)   bands (ev):

   -67.9333 -67.9309 -39.4113 -39.4027 -39.3726 -39.3670 -39.3655 -39.3441
    -7.9739  -7.7726  -7.4922  -7.4842  -7.4121  -7.2513   0.2455   0.8219
     1.1570   1.2871   1.3235   1.7410   2.0957   2.3283   2.4211   2.4420
     2.6930   2.7076   3.1256   3.1900   3.3248   3.7000   3.7551   4.1696
     6.3224   6.3461   6.6831   6.6876   6.8959   7.0143   7.3246   7.5129
     7.6064   7.7114

     occupation numbers 
     1.0000   1.0000   1.0000   1.0000   1.0000   1.0000   1.0000   1.0000
     1.0000   1.0000   1.0000   1.0000   1.0000   1.0000   1.0000   1.0000
     1.0000   1.0000   1.0000   1.0000   1.0000   1.0000   1.0000   1.0000
     1.0000   1.0000   1.0000   1.0000   1.0000   1.0000   1.0000   1.0000
     0.0000   0.0000   0.0000   0.0000   0.0000   0.0000   0.0000   0.0000
     0.0000   0.0000

          k = 0.5607 0.3237 0.1944 (  7754 PWs)   bands (ev):

   -67.9283 -67.9247 -39.4017 -39.4003 -39.3645 -39.3593 -39.3558 -39.3408
    -8.0471  -7.8363  -7.4123  -7.3893  -7.3353  -7.3315   0.1317   0.6972
     0.7341   1.3296   1.5247   1.8107   1.9021   2.1563   2.4480   2.4621
     2.6027   3.1215   3.2665   3.4420   3.4451   3.8176   3.8811   4.1999
     6.2300   6.3052   6.7927   6.7970   6.8881   7.0118   7.3817   7.6240
     7.7207   7.7270

     occupation numbers 
     1.0000   1.0000   1.0000   1.0000   1.0000   1.0000   1.0000   1.0000
     1.0000   1.0000   1.0000   1.0000   1.0000   1.0000   1.0000   1.0000
     1.0000   1.0000   1.0000   1.0000   1.0000   1.0000   1.0000   1.0000
     1.0000   1.0000   1.0000   1.0000   1.0000   1.0000   1.0000   1.0000
     0.0000   0.0000   0.0000   0.0000   0.0000   0.0000   0.0000   0.0000
     0.0000   0.0000

          k = 0.5607-0.3237 0.3888 (  7784 PWs)   bands (ev):

   -67.9333 -67.9309 -39.4113 -39.4027 -39.3726 -39.3670 -39.3655 -39.3441
    -7.9739  -7.7726  -7.4922  -7.4842  -7.4121  -7.2513   0.2455   0.8219
     1.1570   1.2871   1.3235   1.7410   2.0957   2.3283   2.4211   2.4420
     2.6930   2.7076   3.1256   3.1900   3.3248   3.7000   3.7551   4.1696
     6.3224   6.3461   6.6831   6.6876   6.8959   7.0143   7.3246   7.5129
     7.6064   7.7114

     occupation numbers 
     1.0000   1.0000   1.0000   1.0000   1.0000   1.0000   1.0000   1.0000
     1.0000   1.0000   1.0000   1.0000   1.0000   1.0000   1.0000   1.0000
     1.0000   1.0000   1.0000   1.0000   1.0000   1.0000   1.0000   1.0000
     1.0000   1.0000   1.0000   1.0000   1.0000   1.0000   1.0000   1.0000
     0.0000   0.0000   0.0000   0.0000   0.0000   0.0000   0.0000   0.0000
     0.0000   0.0000

          k = 0.0000 0.6475 0.3888 (  7784 PWs)   bands (ev):

   -67.9333 -67.9309 -39.4113 -39.4027 -39.3726 -39.3670 -39.3655 -39.3441
    -7.9739  -7.7726  -7.4922  -7.4842  -7.4121  -7.2513   0.2455   0.8219
     1.1570   1.2871   1.3235   1.7410   2.0957   2.3283   2.4211   2.4420
     2.6930   2.7076   3.1256   3.1900   3.3248   3.7000   3.7551   4.1696
     6.3224   6.3461   6.6831   6.6876   6.8959   7.0143   7.3246   7.5129
     7.6064   7.7114

     occupation numbers 
     1.0000   1.0000   1.0000   1.0000   1.0000   1.0000   1.0000   1.0000
     1.0000   1.0000   1.0000   1.0000   1.0000   1.0000   1.0000   1.0000
     1.0000   1.0000   1.0000   1.0000   1.0000   1.0000   1.0000   1.0000
     1.0000   1.0000   1.0000   1.0000   1.0000   1.0000   1.0000   1.0000
     0.0000   0.0000   0.0000   0.0000   0.0000   0.0000   0.0000   0.0000
     0.0000   0.0000

          k = 0.0000 0.0000 0.5832 (  7766 PWs)   bands (ev):

   -67.9296 -67.9263 -39.4099 -39.3772 -39.3647 -39.3647 -39.3576 -39.3576
    -8.2756  -7.7907  -7.3610  -7.3610  -7.2472  -7.2472   0.1504   1.1714
     1.2738   1.2738   1.3701   1.3701   1.5365   2.1557   2.4052   2.4052
     2.4495   2.7489   2.7489   3.0632   3.7421   3.7421   4.3060   4.3060
     6.4374   6.5377   6.5377   6.7250   6.9081   6.9081   7.4169   7.4169
     7.7812   7.7812

     occupation numbers 
     1.0000   1.0000   1.0000   1.0000   1.0000   1.0000   1.0000   1.0000
     1.0000   1.0000   1.0000   1.0000   1.0000   1.0000   1.0000   1.0000
     1.0000   1.0000   1.0000   1.0000   1.0000   1.0000   1.0000   1.0000
     1.0000   1.0000   1.0000   1.0000   1.0000   1.0000   1.0000   1.0000
     0.0000   0.0000   0.0000   0.0000   0.0000   0.0000   0.0000   0.0000
     0.0000   0.0000

     highest occupied, lowest unoccupied level (ev):     4.8625    5.8652

!    total energy              =    -510.16124473 Ry
     estimated scf accuracy    <          1.1E-10 Ry

     The total energy is the sum of the following terms:
     one-electron contribution =    -341.25285553 Ry
     hartree contribution      =     188.52075345 Ry
     xc contribution           =     -99.07008070 Ry
     ewald contribution        =    -258.35906195 Ry

     total magnetization       =     6.00 Bohr mag/cell
     absolute magnetization    =     7.03 Bohr mag/cell

     convergence has been achieved in  16 iterations

     Writing all to output data dir /home/nicola/CODES/q-e-kcw/tempdir/cri3.save/ :
     XML data file, charge density, pseudopotentials, collected wavefunctions

     init_run     :      2.66s CPU      2.76s WALL (       1 calls)
     electrons    :    135.09s CPU    137.54s WALL (       1 calls)

     Called by init_run:
     wfcinit      :      2.36s CPU      2.46s WALL (       1 calls)
     wfcinit:atom :      0.02s CPU      0.03s WALL (      16 calls)
     wfcinit:wfcr :      2.20s CPU      2.27s WALL (      16 calls)
     potinit      :      0.02s CPU      0.02s WALL (       1 calls)
     hinit0       :      0.27s CPU      0.27s WALL (       1 calls)

     Called by electrons:
     c_bands      :    126.27s CPU    128.35s WALL (      16 calls)
     sum_band     :      8.40s CPU      8.73s WALL (      16 calls)
     v_of_rho     :      0.27s CPU      0.27s WALL (      17 calls)
     v_h          :      0.02s CPU      0.02s WALL (      17 calls)
     v_xc         :      0.24s CPU      0.24s WALL (      17 calls)
     mix_rho      :      0.14s CPU      0.15s WALL (      16 calls)

     Called by c_bands:
     init_us_2    :      1.14s CPU      1.18s WALL (     528 calls)
     cegterg      :    122.61s CPU    124.68s WALL (     256 calls)

     Called by sum_band:
     sum_band:wei :      0.00s CPU      0.00s WALL (      16 calls)
     sum_band:loo :      8.33s CPU      8.66s WALL (      16 calls)
     sum_band:buf :      0.09s CPU      0.10s WALL (     256 calls)
     sum_band:ini :      0.55s CPU      0.58s WALL (     256 calls)

     Called by *egterg:
     cdiaghg      :      4.81s CPU      4.82s WALL (    1092 calls)
     cegterg:over :     12.91s CPU     12.98s WALL (     836 calls)
     cegterg:upda :      7.26s CPU      7.29s WALL (     836 calls)
     cegterg:last :     12.48s CPU     12.50s WALL (     554 calls)
     h_psi        :     81.62s CPU     83.59s WALL (    1108 calls)
     g_psi        :      0.23s CPU      0.23s WALL (     836 calls)

     Called by h_psi:
     h_psi:calbec :     19.23s CPU     19.37s WALL (    1108 calls)
     vloc_psi     :     41.78s CPU     43.55s WALL (    1108 calls)
                                        0.00s GPU  (    1108 calls)
     add_vuspsi   :     20.42s CPU     20.47s WALL (    1108 calls)

     General routines
     calbec       :     19.23s CPU     19.37s WALL (    1108 calls)
     fft          :      0.30s CPU      0.30s WALL (      83 calls)
     ffts         :      0.03s CPU      0.03s WALL (      32 calls)
     fftw         :     44.17s CPU     46.02s WALL (   70040 calls)

     Parallel routines

     PWSCF        :   2m17.84s CPU   2m20.48s WALL


   This run was terminated on:  20:53: 7  16Sep2025            

=------------------------------------------------------------------------------=
   JOB DONE.
=------------------------------------------------------------------------------=
