 &control
    calculation='phonon'
    restart_mode='from_scratch',
    prefix='alas',
    pseudo_dir = '/home/giannozz/O-sesame/pseudo//',
    outdir='/home/giannozz/tmp//'
 /
 &system    
    ibrav=  2, celldm(1) =10.50, nat=  2, ntyp= 2,
    ecutwfc =16.0
 /
 &electrons
    conv_thr =  1.0d-8
 /
 &phonon
    xqq(1) = -0.50, xqq(2) = 0.00, xqq(3) = 1.00
 /
ATOMIC_SPECIES
 Al  26.98  Al.vbc.UPF
 As  74.92  As.gon.UPF
ATOMIC_POSITIONS
 Al 0.00 0.00 0.00 
 As 0.25 0.25 0.25 
K_POINTS
 2
 0.25 0.25 0.25 1.0
 0.25 0.25 0.75 3.0
