&control
    calculation='scf'
    prefix='gan'
    restart_mode='from_scratch'
    pseudo_dir='../../pp'
    outdir='./'
    tprnfor=.true.
    tstress=.true.
    wf_collect=.true.
 /
 &system
    ibrav = 4
    celldm(1)=5.95484286816
    celldm(3)=1.63011343669
    nat = 4
    ntyp = 2
    ecutwfc = 60
 /
 &electrons
    diagonalization='david'
    mixing_beta=0.7
    conv_thr=1.0d-10
 /
ATOMIC_SPECIES
  Ga  69.723   Ga_ONCV_LDA-1.0.upf
  N   14.007   N_ONCV_LDA-1.0.upf
ATOMIC_POSITIONS crystal
  Ga  0.666666666667 0.333333333333  0.0
  N   0.666666666667 0.333333333333  0.376429222
  Ga  0.333333333333 0.666666666667  0.5
  N   0.333333333333 0.666666666667  0.876429222
K_POINTS automatic
 3 3 3 0 0 0

