 &control
    calculation='raman',
    restart_mode='from_scratch',
    tstress = .true.
    tprnfor = .true.
    prefix='alas',
    pseudo_dir = '/u/deinzer/Pseudopotentials//',
    outdir='/home/deinzer/tmp_ram2//'
 /
 &system    
    nosym = .false.,
    ibrav=  2, celldm(1) =10.575, nat=  2, ntyp= 2,
    ecutwfc = 10.0
 /
 &electrons
    conv_thr =  1.0d-8
    mixing_beta = 0.7
 /
 &raman
     b_length = 0.001,
     lcart = .true., 
  /
ATOMIC_SPECIES
 Al  26.98  Al.vbc.UPF
 As  74.92  As.gon.UPF
ATOMIC_POSITIONS
 Al 0.00 0.00 0.00 
 As 0.25 0.25 0.25 
K_POINTS {automatic}
 4 4 4 1 1 1  
