&CONTROL
  calculation='scf'
  restart_mode='from_scratch',
  prefix='h2o'
  pseudo_dir = '../../pseudo/',
  outdir='./out'
  verbosity='high'
 /
&SYSTEM
  ecutwfc =   45.0
  ibrav = 0
  input_dft = 'PBE'
  nat = 3
  nspin = 2
  ntyp = 2
  nbnd = 5
  assume_isolated='mt'
  tot_magnetization = 0.0
/
&ELECTRONS
  diagonalization='david'
  mixing_mode = 'plain'
  mixing_beta = 0.7
  conv_thr =  0.5d-12
/
ATOMIC_SPECIES
H 1 H.pbe-vbc.UPF
O 1 O.pbe-mt.UPF

ATOMIC_POSITIONS angstrom
O 3.7571 3.0000 2.9023166667 
H 4.5142 3.0000 3.4884166667 
H 3.0000 3.0000 3.4884166667

CELL_PARAMETERS angstrom
7.5142 0.0 0.0 
0.0 6.0 0.0 
0.0 0.0 6.5861 

K_POINTS automatic
1 1 1 0 0 0
