KCW h2o screen
&control
  prefix='h2o'
  outdir='./out'
  kcw_iverbosity = 2
  kcw_at_ks=.true.
  read_unitary_matrix = .false.
  assume_isolated = 'mt'
  calculation = 'screen'
  lrpa =.false.
  mp1 = 1
  mp2 = 1
  mp3 = 1
/
&screen
  tr2    =1.0d-18
  nmix   = 4
  niter  = 33
 /
