    46
 Wannier centres, written by merge.x
X          0.00000000       3.96466430       0.00680809
X         -0.00000000       3.96466430       6.59552525
X          0.00000001       3.96466440       0.00679195
X         -0.00000201       3.96455202       0.00680445
X          0.00000198       3.96477745       0.00680439
X         -0.00000001       3.96466420       6.59554138
X          0.00000201       3.96477658       6.59552889
X         -0.00000198       3.96455114       6.59552895
X         -1.23755032       5.79931044       5.11831699
X          2.20762536       4.11909125       5.11831696
X         -0.97007503       1.97559120       5.11831697
X          1.23755057       2.13001804       1.48401635
X          4.65937443       3.81023720       1.48401637
X          4.40357500       0.00674122       1.48401637
X         -1.22487837       5.80842571       5.04278243
X         -1.60855301       5.85001845       5.33067512
X         -0.99080194       5.54167268       5.30533858
X          2.20918806       4.10356005       5.04278323
X          1.86109195       4.03434261       5.30532566
X          2.43696679       4.41504596       5.33074508
X         -0.87028441       2.31805065       5.30540613
X         -0.98430607       1.98200641       5.04278260
X         -0.82838125       1.62899980       5.33070101
X          1.22487853       2.12090278       1.55955087
X          1.60855329       2.07931009       1.27165812
X          0.99080221       2.38765572       1.29699490
X          4.65781177       3.82576847       1.55955006
X          5.00590777       3.89498587       1.29700780
X          4.43003304       3.51428246       1.27158818
X          4.30378445      -0.33571816       1.29692736
X          4.41780608       0.00032593       1.55955069
X          4.26188117       0.35333261       1.27163224
X         -0.00327994       3.96576500       0.00952620
X         -0.00019646       3.96312567       0.00773183
X          0.00353125       3.96502406       0.00779885
X          0.00327994       3.96356360       6.59280717
X          0.00019645       3.96620294       6.59460151
X         -0.00353124       3.96430452       6.59453449
Cr         0.00000000       3.96466430       0.00680040
Cr         0.00000000       3.96466430       6.59553293
I         -1.20958771       5.84849436       5.03824057
I          2.23623855       4.07028296       5.03824057
I         -1.02665084       1.97521558       5.03824057
I          1.20958771       2.08083423       1.56409277
I          4.63076145       3.85904564       1.56409277
I          4.46015084       0.00711657       1.56409277
