    12
 Wannier centres, written by merge.x
X          0.00551220       3.93710211       0.02049701
X         -0.00239015       3.99530558       0.02047683
X         -6.87251206       0.02756172      -6.62283028
X         -6.86460987      -0.03064065      -6.62281012
Cr         0.00000000       3.96466430       0.00680040
Cr         0.00000000       3.96466430       6.59553293
I         -1.20958771       5.84849436       5.03824057
I          2.23623855       4.07028296       5.03824057
I         -1.02665084       1.97521558       5.03824057
I          1.20958771       2.08083423       1.56409277
I          4.63076145       3.85904564       1.56409277
I          4.46015084       0.00711657       1.56409277
