 &input fildyn='dmat.co2', asr='zero-dim' /
