 &input fildyn='dmat.zno', asr='zero-dim' /
