KI Silicon
 &control
  prefix='Si'
  outdir='./out'
  kc_at_ks=.false.
  read_unitary_matrix = .true.
  kc_iverbosity = 2
/
&system
  seedname = 'Si'
  num_wann_emp = 32 
  num_wann_occ = 32
  have_empty = .true. 
  has_disentangle = .true. 
  check_ks = .true. 
/
&ham
  qp_symm = .TRUE.
  kipz_corr = .false.
  mp1 = 1, mp2 = 1, mp3 = 1
 /
