---
 &inputph
  tr2_ph=1.0d-14,
  prefix='si',
  outdir='./',
  fildyn='si.dyn',
  fildvscf='dvscf'
  electron_phonon='epw',
 /
0.5 0.5 0.5
