&control
 calculation   = 'bands',
 restart_mode  = 'from_scratch',
 prefix        = 'single_+0.10',
 outdir        = '/home/paulatto/espresso/tempdir/',
 nstep         = 300,
 monopole      = .true.,
 tefield       = .true.,
 dipfield      = .true.,
/
&system
 ibrav       = 4,
 celldm(1)   = 5.9716,
 celldm(3)   = 12,
 nat         = 3,
 ntyp        = 2,
 ecutwfc     = 50,
 ecutrho     = 410,
 occupations = 'smearing',
 degauss     = 0.002,
 smearing    = 'gauss',
 tot_charge  = +0.10,
 relaxz      = .true.,
 edir        = 3,
 zmon        = 0.011,
 emaxpos     = 0.000001,
 eopreg      = 0.01,
 block       = .true.,
 block_1     = 0.000001,
 block_2     = 0.1,
 block_height= 1.0,
/
&electrons
 conv_thr = 1.0d-9,
/
ATOMIC_SPECIES
 Mo  95.94    Mo.pz-spn-rrkjus_psl.0.2.UPF
 S   32.066   S.pz-n-rrkjus_psl.0.1.UPF
ATOMIC_POSITIONS (alat)
S        0.500000000   0.288675130   1.863316950
Mo       0.000000000   0.577350270   2.350404949
S        0.000000000  -0.577350270   2.838203782
K_POINTS crystal_b
4
 0.000000  0.000000  0.000000  33
 0.500000  0.000000  0.000000  25
 0.666666 -0.333333  0.000000  50
 0.000000  0.000000  0.000000  1
