 &inputhp
   prefix = 'Ni2MnGa',
   outdir = '/scratch/timrov/QE_gitlab/tmp1/q-e/tempdir/',
   nq1 = 2, nq2 = 2, nq3 = 2,
   iverbosity = 2
   compute_hp = .true.
 /
