 &control
    calculation='scf'
    restart_mode='from_scratch',
    pseudo_dir = '/home/giannozz/O-sesame/pseudo//',
    outdir='/home/giannozz/tmp//'
    prefix='cu'
 /
 &system
    ibrav = 2, celldm(1) =6.73, nat= 1, ntyp= 1,
    ecutwfc = 25.0, ecutrho = 300.0
    occupations='smearing', smearing='methfessel-paxton', degauss=0.02
    noncolin = .true.
    starting_magnetization(1) = 0.5
    angle1(1) = 90.0
    angle2(1) =  0.0
 /
 &electrons
    conv_thr = 1.0e-8
    mixing_beta = 0.7
    diagonalization = 'cg'
 /
ATOMIC_SPECIES
 Cu 63.55 Cu.pz-d-rrkjus.UPF
ATOMIC_POSITIONS
 Cu 0.0 0.0 0.0
K_POINTS (automatic)
 8 8 8 0 0 0
