 &control
    calculation='nscf'
    pseudo_dir = '/home/giannozz/O-sesame/pseudo//',
    outdir='/home/giannozz/tmp//'
    prefix='ni'
 /
 &system
    ibrav=2, celldm(1) =6.48, nat=1, ntyp=1,
    starting_magnetization(1)=0.7,
    ecutwfc = 24.0, ecutrho = 288.0, nbnd = 8
    noncolin = .true.
    starting_magnetization(1) = 0.5
    angle1(1) = 90.0
    angle2(1) =  0.0

 /
 &electrons
 /
ATOMIC_SPECIES
 Ni 58.69 Ni.pbe-nd-rrkjus.UPF
ATOMIC_POSITIONS
 Ni 0.0 0.0 0.0 
K_POINTS
 28
   0.0 0.0 0.0 1.0
   0.0 0.0 0.1 1.0
   0.0 0.0 0.2 1.0
   0.0 0.0 0.3 1.0
   0.0 0.0 0.4 1.0
   0.0 0.0 0.5 1.0
   0.0 0.0 0.6 1.0
   0.0 0.0 0.7 1.0
   0.0 0.0 0.8 1.0
   0.0 0.0 0.9 1.0
   0.0 0.0 1.0 1.0
   0.0 0.0 0.0 1.0
   0.0 0.1 0.1 1.0
   0.0 0.2 0.2 1.0
   0.0 0.3 0.3 1.0
   0.0 0.4 0.4 1.0
   0.0 0.5 0.5 1.0
   0.0 0.6 0.6 1.0
   0.0 0.7 0.7 1.0
   0.0 0.8 0.8 1.0
   0.0 0.9 0.9 1.0
   0.0 1.0 1.0 1.0
   0.0 0.0 0.0 1.0
   0.1 0.1 0.1 1.0
   0.2 0.2 0.2 1.0
   0.3 0.3 0.3 1.0
   0.4 0.4 0.4 1.0
   0.5 0.5 0.5 1.0
