 &control
    calculation = 'scf'
    restart_mode='from_scratch',
    prefix='TiO2',
    pseudo_dir = '/home/timrov_i/WORKSPACE/PSI/Gitlab/tmp1/q-e/pseudo/',
    outdir='/home/timrov_i/WORKSPACE/PSI/Gitlab/tmp1/q-e/tempdir/'
    disk_io = 'medium'
 /
 &system
    ibrav = 0,
    nat = 6,
    ntyp = 2,
    ecutwfc = 50,
    ecutrho = 500,
    occupations = 'fixed',
    nosym = .true.
    noinv = .true.
 /
 &electrons
    mixing_mode = 'plain'
    mixing_beta = 0.3
    conv_thr =  1.0d-8
 /
ATOMIC_SPECIES
 Ti 47.867  Ti.pbesol-spn-rrkjus_psl.1.0.0.UPF
 O  15.999  O.pbesol-n-rrkjus_psl.1.0.0.UPF 
ATOMIC_POSITIONS {crystal}
Ti  0.000000000   0.000000000   0.000000000
Ti  0.500000000   0.500000000   0.500000000
O   0.305700016   0.305700016   0.000000000
O   0.805699990   0.194299997   0.500000000
O   0.194299997   0.805699990   0.500000000
O   0.694300010   0.694300010   0.000000000
CELL_PARAMETERS {angstrom}
   4.5940999985    0.0000000000     0.0000000000
   0.0000000000    4.5940999985     0.0000000000
   0.0000000000    0.0000000000     2.9588999748
K_POINTS {automatic}
 2 2 2 0 0 0
HUBBARD {ortho-atomic}
U Ti-3d 4.0
