&energy_current
vel_input_units="CP",
    delta_t=   0.500,
    file_output= 'current_hz',
    eta=   0.100,
    n_max=     5,
 /
 &CONTROL
    calculation='md',
    restart_mode='from_scratch',
    pseudo_dir='../../pseudo',
    outdir='./save',
    disk_io = 'none',
/
 &SYSTEM
    ibrav=0,
    celldm(1) = 10.,
    nat=    3,
    ntyp=     2,
    ecutwfc = 40.d0,
/
 &ELECTRONS
    conv_thr = 1.D-11,
    mixing_beta = 0.7,
/
 &IONS
    ion_velocities = 'from_input',
/
 ATOMIC_SPECIES
   H      1.00000000 H.pbe-vbc.UPF
   O     16.00000000 O.pbe-mt.UPF
ATOMIC_POSITIONS {bohr}
H -7.614226772368739367e-05 5.924619343445151334e-04 1.084731403888793307e-03
H -3.858619355897572028e-03 -1.468707678118577652e-03 -6.487621270629246012e-05
O 2.459226014763471707e-04 5.476535898588477566e-05 -6.374094944890378468e-05

ATOMIC_VELOCITIES
H 3.488731248921730140e-03 1.445182764344549176e-02 2.248388026807234853e-03
H -1.004738320608099950e-02 -1.056922854452926192e-02 8.457307729335322233e-04
O 5.891778921078606041e-03 -3.549968784364111556e-03 -2.685055398376128086e-03

CELL_PARAMETERS {alat}
-5.626666167821522402e-01 4.960573506572389380e-01 -6.613118653236518263e-01
-1.225337032147921362e-01 7.410760942142088359e-01 6.601452220236712076e-01
8.175523040976619971e-01 4.524746704989507373e-01 -3.561950345266902129e-01

K_POINTS {Gamma}
